p cnf 70 280
-28 -69 -62 0
-58 -16 48 0
-51 -70 7 0
43 50 18 0
27 -7 -37 0
31 61 -27 0
-52 20 -1 0
-26 -23 -13 0
-34 30 -58 0
48 38 -7 0
-42 17 -59 0
35 21 45 0
-24 -48 28 0
-35 19 -40 0
7 68 -4 0
58 15 -67 0
-8 -22 68 0
-4 -3 -39 0
-49 -53 -36 0
64 -21 58 0
-61 66 -41 0
-41 -6 -49 0
35 63 -10 0
-48 52 3 0
24 31 35 0
-69 9 -6 0
20 -31 64 0
7 -38 -67 0
-37 -63 -55 0
1 40 -68 0
-45 -36 62 0
7 9 49 0
-26 -5 -46 0
-20 -27 -52 0
-52 -7 59 0
66 59 48 0
-10 -37 -6 0
69 -47 66 0
22 -60 26 0
14 -50 5 0
-22 -40 -18 0
18 23 -4 0
65 -46 43 0
-43 58 -9 0
27 -41 34 0
-60 17 -31 0
50 -69 46 0
42 11 4 0
-9 32 -46 0
6 -13 -59 0
-45 28 53 0
-24 11 12 0
67 51 50 0
31 -20 35 0
-29 -57 -35 0
37 -43 29 0
1 36 8 0
14 -5 38 0
25 42 -14 0
52 -27 66 0
-3 4 13 0
-56 28 17 0
2 3 -57 0
43 -56 4 0
49 41 60 0
-42 -41 -21 0
34 13 -16 0
55 39 -8 0
33 37 -70 0
-1 -34 3 0
58 -2 -52 0
37 68 56 0
59 30 3 0
-28 -39 -63 0
14 15 13 0
-56 64 -40 0
-46 -65 5 0
56 -30 -25 0
-5 -23 -65 0
-47 -49 -22 0
-38 10 48 0
25 41 14 0
-12 17 -23 0
31 -44 -42 0
-70 15 63 0
46 18 70 0
12 -28 29 0
-68 64 49 0
-54 -8 -29 0
55 38 -70 0
37 -1 -43 0
57 26 -23 0
-42 41 32 0
62 65 -56 0
-32 5 -30 0
-52 54 -59 0
5 13 29 0
33 -69 48 0
-28 45 17 0
33 -29 16 0
-40 -38 42 0
-58 -46 -19 0
54 62 -67 0
-64 1 -6 0
-40 38 25 0
62 38 29 0
-40 -4 63 0
-70 4 12 0
-7 -42 -64 0
57 -59 28 0
-4 -15 -63 0
-48 26 -23 0
-2 11 68 0
-52 1 38 0
-35 -16 31 0
-17 -2 -47 0
-1 2 -55 0
-54 32 17 0
-5 29 14 0
55 -12 -43 0
-23 55 62 0
-32 46 21 0
53 -30 -67 0
-22 -61 68 0
50 48 14 0
9 -27 -40 0
1 43 -60 0
-8 -46 -59 0
-54 29 43 0
-34 -70 -54 0
22 4 41 0
-12 -57 -34 0
9 69 -43 0
-10 58 23 0
-44 -49 -1 0
-32 -23 -41 0
20 37 11 0
46 31 9 0
-56 49 -19 0
-51 4 12 0
28 -14 58 0
59 20 27 0
65 32 -41 0
26 24 -11 0
45 -38 12 0
-10 17 65 0
-42 45 -44 0
31 68 -49 0
-28 -3 -51 0
17 -68 -3 0
-9 -37 -52 0
5 -64 17 0
49 39 30 0
45 29 -32 0
-61 12 51 0
13 -50 -39 0
-32 56 -43 0
-67 68 -45 0
-52 -50 -31 0
-49 -16 8 0
66 34 -62 0
35 -30 -34 0
-37 21 -14 0
17 38 7 0
-2 24 28 0
-69 39 24 0
21 19 42 0
-11 -6 -40 0
28 54 -5 0
48 26 -43 0
49 -6 -36 0
-6 57 2 0
-52 45 42 0
37 39 67 0
-24 -48 -59 0
66 -45 61 0
26 56 -68 0
38 -47 43 0
23 20 -40 0
-3 40 -39 0
44 46 58 0
-6 15 -54 0
-30 44 63 0
-67 -39 36 0
18 53 35 0
-4 -54 15 0
64 -19 -68 0
6 21 -33 0
33 -20 -42 0
-51 70 59 0
-38 -18 62 0
-37 2 -55 0
-21 -34 62 0
23 -19 26 0
52 62 -5 0
64 -11 -63 0
-25 7 17 0
17 5 43 0
12 -67 -70 0
-37 -6 -34 0
26 36 -28 0
40 -62 29 0
-35 67 54 0
47 48 -2 0
34 -18 -32 0
-33 -6 18 0
-22 12 63 0
32 -67 -53 0
50 -68 -55 0
27 65 15 0
69 -2 16 0
25 -1 -33 0
41 -5 -10 0
-52 -64 60 0
50 4 26 0
-62 18 31 0
29 -33 -25 0
-15 -38 66 0
57 -51 53 0
-41 -52 -51 0
45 -19 22 0
-56 -20 37 0
1 36 37 0
-35 58 5 0
-55 -39 -21 0
62 46 38 0
-32 -35 -43 0
41 -12 -31 0
44 -25 41 0
7 23 43 0
-49 -25 -67 0
15 -7 -49 0
27 57 55 0
-22 9 54 0
-63 -33 -47 0
-44 -45 41 0
-15 58 49 0
-64 -15 -42 0
-12 -56 27 0
-68 -63 62 0
-59 -11 4 0
-24 70 43 0
-58 4 33 0
33 -27 4 0
2 18 -13 0
48 36 6 0
-66 56 -70 0
-69 -57 -37 0
43 -48 -68 0
5 -42 2 0
32 51 27 0
-60 -29 37 0
-55 -7 38 0
2 45 -47 0
22 -68 -28 0
-67 -15 -38 0
-7 -21 -52 0
-59 54 26 0
-38 -48 46 0
-62 -24 -14 0
70 -54 11 0
-38 -28 33 0
60 43 -65 0
-48 -63 -11 0
-38 -9 33 0
-12 -60 -67 0
-64 19 -15 0
-16 -29 -26 0
-10 3 22 0
-65 30 -16 0
-57 -48 -4 0
-63 17 37 0
42 -36 -51 0
-53 -14 67 0
-63 -38 15 0
-50 52 4 0
28 -68 -48 0
-12 27 -51 0
53 -29 -50 0
-18 46 62 0
