p cnf 70 280
-66 62 18 0
-41 -9 -31 0
51 -23 -45 0
-10 36 -19 0
49 -64 -5 0
40 -14 -56 0
69 13 3 0
-34 38 68 0
-66 31 -58 0
-44 26 54 0
-11 62 -51 0
28 -13 -48 0
62 29 -41 0
-48 32 -18 0
66 21 -48 0
-69 39 70 0
2 36 -10 0
-57 68 -40 0
-42 26 -61 0
30 25 -21 0
63 21 -9 0
-69 7 21 0
-7 57 18 0
-36 31 6 0
60 -56 46 0
35 -68 -57 0
25 60 -66 0
-44 21 -27 0
-38 -15 68 0
-37 66 34 0
41 69 28 0
-52 9 30 0
21 -27 -69 0
-68 -11 -26 0
8 15 46 0
44 50 -40 0
-53 58 30 0
-52 39 -51 0
32 -40 54 0
-26 -61 60 0
42 9 -59 0
-27 -56 -32 0
56 -12 55 0
34 18 20 0
-54 -29 40 0
-54 38 70 0
15 -2 -35 0
3 20 -6 0
39 -44 -69 0
-23 69 41 0
-16 26 30 0
-18 29 16 0
-30 -6 18 0
41 -58 -61 0
-32 -70 -42 0
-21 44 22 0
53 -36 5 0
-70 -4 -25 0
33 -42 18 0
-18 46 -62 0
-65 -70 -3 0
-35 -7 3 0
-35 43 58 0
42 -19 -49 0
-49 29 66 0
-47 26 58 0
19 -60 32 0
66 30 50 0
50 -17 12 0
-14 16 -68 0
8 23 -19 0
-38 14 -24 0
-69 -39 11 0
28 52 56 0
-36 1 -15 0
-34 45 59 0
-2 -19 28 0
47 -6 27 0
-28 -44 20 0
36 23 34 0
6 39 58 0
48 -59 47 0
-14 27 -62 0
-68 -40 -23 0
-19 -36 -12 0
13 -68 -23 0
-40 -62 28 0
19 -18 -43 0
-57 -34 46 0
52 -35 68 0
-2 -66 -26 0
-54 -20 -32 0
20 -70 -34 0
-33 37 -57 0
45 34 -29 0
35 -68 66 0
7 19 46 0
63 62 -65 0
-8 58 -56 0
-20 -45 69 0
-51 43 -65 0
-50 -9 -43 0
19 -47 -54 0
51 -14 23 0
-1 59 4 0
-55 -54 70 0
-1 -65 44 0
-61 -11 -22 0
-18 -25 35 0
-59 8 -7 0
-64 27 -8 0
62 -63 -25 0
-66 51 -10 0
63 -8 47 0
-58 -39 52 0
10 31 -42 0
23 -35 -53 0
61 -40 31 0
-63 70 -33 0
46 -63 70 0
39 -30 41 0
-40 15 -58 0
-55 -63 -49 0
37 9 8 0
61 42 -46 0
47 -64 -38 0
-24 59 -28 0
-15 45 -8 0
56 63 22 0
32 9 8 0
62 -37 24 0
-2 39 57 0
53 -12 30 0
-70 25 -59 0
27 20 -36 0
-7 53 22 0
-70 -32 -28 0
49 9 35 0
-48 -43 55 0
-8 -46 51 0
-9 39 30 0
68 -15 -18 0
53 20 50 0
-70 3 11 0
43 -37 -11 0
-69 39 32 0
-64 30 59 0
27 -48 19 0
12 37 -21 0
-70 -3 19 0
-62 -25 56 0
43 -37 12 0
-32 -64 -48 0
63 10 16 0
-27 -14 -13 0
-49 19 33 0
53 -40 65 0
-23 52 -3 0
-54 -29 68 0
-28 -59 -25 0
11 -56 9 0
-1 51 25 0
-61 -33 40 0
3 -69 -70 0
44 -59 -47 0
53 27 44 0
-7 62 -5 0
27 58 -46 0
-57 -40 20 0
-20 -21 26 0
-5 50 64 0
69 -39 31 0
66 -17 -54 0
-59 -64 15 0
18 65 -24 0
21 -70 60 0
18 -49 -10 0
-26 3 58 0
-64 4 -68 0
29 -50 19 0
39 60 1 0
24 43 17 0
-25 64 -7 0
-24 19 -2 0
-56 -5 -53 0
31 5 -38 0
62 10 56 0
31 -18 -5 0
-47 -48 -26 0
52 -49 31 0
64 -50 43 0
-15 5 -7 0
40 30 63 0
50 -5 -62 0
-20 51 -44 0
53 -29 70 0
23 56 -43 0
-40 -11 22 0
25 41 -3 0
36 54 49 0
-45 -7 -70 0
-68 65 53 0
-67 4 -11 0
36 70 5 0
-17 -53 -23 0
31 32 -40 0
47 55 42 0
48 -36 16 0
-63 17 9 0
70 -24 16 0
-53 56 52 0
-61 -34 -59 0
60 10 -49 0
-62 -47 -3 0
19 -54 24 0
-64 -62 41 0
15 39 46 0
66 -46 -35 0
-41 -32 -8 0
-52 -56 40 0
-68 -14 -35 0
-58 -54 -52 0
49 7 -37 0
16 -52 -47 0
-25 17 -59 0
-4 17 -24 0
28 -2 -64 0
-66 17 -30 0
63 -59 70 0
-3 -8 7 0
-25 36 53 0
-30 34 -25 0
-23 -8 53 0
12 24 39 0
52 64 -42 0
56 -59 35 0
-63 41 12 0
2 -16 -57 0
16 47 -23 0
49 50 -19 0
-55 64 -36 0
1 -52 -44 0
-23 68 37 0
-24 45 -30 0
-11 56 -53 0
-65 -60 30 0
-61 -51 47 0
63 -30 -8 0
46 48 36 0
-40 -46 -51 0
13 -3 31 0
1 5 14 0
8 33 59 0
-69 -67 30 0
-67 42 -57 0
-6 -46 54 0
64 -27 51 0
-22 -27 70 0
35 -12 10 0
-16 -55 9 0
28 -9 55 0
-68 44 -23 0
15 44 13 0
-23 -60 44 0
61 3 33 0
70 -40 -51 0
13 -61 -43 0
56 54 -2 0
-43 -26 -15 0
25 18 38 0
50 2 -53 0
36 -8 52 0
-22 -29 67 0
60 -63 -24 0
60 -51 54 0
68 -59 -60 0
24 32 -29 0
-59 62 -63 0
-10 8 32 0
63 -55 -27 0
