p cnf 70 260
-59 34 29 0
64 1 48 0
56 49 60 0
-62 -43 60 0
-43 8 1 0
-30 14 -25 0
-65 -25 63 0
-62 -27 -2 0
-24 -40 -43 0
-30 13 18 0
63 64 -59 0
-13 26 -10 0
-16 -43 -28 0
63 -35 -67 0
-47 9 -29 0
7 44 -8 0
45 -48 5 0
5 20 -59 0
-17 -26 -24 0
38 -1 -26 0
-3 47 -24 0
51 -57 67 0
-31 -37 41 0
53 -10 24 0
-14 54 -8 0
11 -13 -63 0
-17 -13 -21 0
-4 50 10 0
7 63 -6 0
-22 16 -7 0
69 -24 -55 0
30 69 -48 0
-39 68 -61 0
-69 52 29 0
4 -51 13 0
-54 60 17 0
11 -68 7 0
-60 21 44 0
65 54 51 0
-53 -44 19 0
-32 -10 20 0
-21 52 11 0
63 40 47 0
14 6 -15 0
58 -37 -4 0
-66 38 58 0
-2 -15 -34 0
-21 -16 66 0
-68 51 -60 0
-28 -59 52 0
4 63 -44 0
-49 -5 38 0
67 -62 -44 0
-26 -15 66 0
63 9 -14 0
20 -54 -43 0
57 -19 30 0
-9 28 -11 0
54 -64 32 0
45 67 58 0
59 -53 -17 0
-47 5 -13 0
20 -44 -25 0
-56 -41 35 0
49 -19 -44 0
64 -1 -17 0
-40 -19 32 0
24 -64 -44 0
44 -52 58 0
-70 -60 -29 0
60 51 -52 0
-29 28 -46 0
14 6 -68 0
7 58 -54 0
-65 -5 48 0
-34 -18 -57 0
29 -40 24 0
-58 -10 9 0
25 -29 -26 0
40 41 30 0
-35 -51 -49 0
-68 63 -40 0
45 6 -68 0
61 70 8 0
-42 -23 -14 0
62 -25 7 0
-42 28 52 0
25 -34 52 0
24 -56 21 0
-59 46 -17 0
55 -48 21 0
-70 47 57 0
-4 60 -48 0
37 44 13 0
-23 -62 63 0
-69 68 -41 0
-2 -44 -38 0
-39 18 -29 0
15 32 68 0
-3 26 54 0
21 67 69 0
-56 1 27 0
-25 -20 21 0
63 36 -21 0
-16 -25 -12 0
-35 11 43 0
-7 -65 8 0
-22 31 -45 0
38 -10 -42 0
22 24 -8 0
-18 -57 60 0
-70 65 -51 0
47 64 -44 0
-14 34 1 0
28 -32 -16 0
-11 67 -29 0
-22 -60 68 0
-38 33 -57 0
56 -33 -70 0
-50 -47 -52 0
-29 -10 -32 0
-12 21 61 0
-6 53 25 0
-60 -55 -10 0
67 -70 -64 0
44 62 -51 0
-48 45 -36 0
31 17 -70 0
-4 -9 -31 0
26 20 66 0
34 -48 5 0
14 -27 -63 0
44 34 40 0
-44 15 69 0
56 2 -46 0
9 -51 -62 0
59 -29 -57 0
20 -3 -48 0
-33 -51 -49 0
67 -35 -20 0
-47 26 -27 0
-30 68 -26 0
54 11 -53 0
6 25 -55 0
41 39 -32 0
-58 -59 -11 0
-23 -15 -60 0
-11 -23 17 0
-42 67 -46 0
-11 54 -67 0
-43 36 -5 0
-10 -38 2 0
-61 12 -58 0
25 19 -8 0
-50 -45 55 0
-49 -5 43 0
-29 65 -3 0
26 10 -20 0
-63 -38 -62 0
13 -59 19 0
-49 61 -2 0
65 62 -57 0
-29 -50 15 0
-11 20 18 0
59 -48 30 0
33 -28 63 0
62 -50 36 0
-51 34 64 0
21 48 1 0
1 44 -64 0
-40 -43 -58 0
-46 58 -11 0
-9 -42 -2 0
40 -12 9 0
-33 -70 -28 0
44 38 -17 0
-26 -67 58 0
-47 61 17 0
61 57 -63 0
-35 21 -23 0
-24 33 50 0
-3 67 -25 0
-70 34 62 0
-3 -67 23 0
9 7 -35 0
-30 -1 42 0
-59 -17 4 0
53 15 67 0
-65 59 7 0
63 -56 -9 0
-17 -37 11 0
-48 -58 66 0
-59 21 11 0
-66 55 39 0
11 -43 -10 0
62 6 -19 0
69 50 -9 0
19 63 14 0
8 -38 59 0
-64 68 31 0
-48 -29 22 0
64 30 21 0
-14 -16 -22 0
54 -29 51 0
-6 -48 -26 0
-23 6 9 0
53 18 -21 0
69 44 -10 0
40 -64 -22 0
-11 2 -49 0
-47 60 41 0
10 62 -70 0
1 -58 35 0
50 -11 48 0
3 2 -41 0
50 9 37 0
-59 -19 -9 0
-29 -69 -19 0
50 2 -63 0
21 24 29 0
-33 21 -48 0
53 45 4 0
57 25 67 0
-24 70 58 0
22 39 33 0
63 -13 -11 0
37 -56 -7 0
10 70 16 0
-16 -67 -38 0
20 -11 7 0
-20 -59 70 0
65 57 -10 0
46 -4 -1 0
41 -4 58 0
-21 -13 -30 0
-56 -61 10 0
-22 -14 30 0
51 44 30 0
-33 68 11 0
-8 -40 36 0
29 43 -14 0
59 14 33 0
23 62 66 0
-48 -60 45 0
28 -6 -38 0
-10 65 -56 0
-49 25 53 0
40 -13 -22 0
-50 28 -4 0
-33 39 70 0
26 70 -22 0
-53 24 -20 0
-19 50 -51 0
-60 4 63 0
-35 38 -15 0
3 7 62 0
46 -24 58 0
4 -8 -11 0
-45 54 68 0
-60 46 -15 0
