p cnf 70 310
-53 -36 64 0
18 -49 58 0
-12 23 -66 0
-64 -8 -70 0
18 24 -26 0
-66 57 -7 0
-26 4 33 0
49 15 -35 0
-27 13 28 0
-68 -8 -9 0
-16 28 -5 0
-26 18 -69 0
35 54 -57 0
-20 -3 34 0
-39 10 25 0
17 -18 56 0
28 19 -17 0
-58 2 21 0
-10 -11 65 0
8 14 13 0
56 -39 50 0
-13 69 -17 0
2 -48 -68 0
-8 34 9 0
60 2 24 0
41 -35 48 0
38 48 -65 0
2 59 -21 0
-52 -68 6 0
-16 -1 -44 0
32 -9 68 0
40 69 7 0
-26 -54 60 0
-4 49 -63 0
36 16 -15 0
-67 -8 56 0
-27 -52 23 0
-70 -11 -53 0
-44 -66 63 0
10 -8 31 0
34 21 -25 0
-16 -47 -69 0
-27 29 28 0
12 -31 20 0
-59 2 54 0
30 2 -22 0
32 -46 5 0
-42 6 -61 0
6 49 -47 0
54 -10 61 0
30 -19 58 0
13 -42 20 0
40 59 -24 0
17 -25 32 0
19 5 -53 0
-40 28 -52 0
-41 -30 58 0
-55 65 -63 0
60 66 63 0
-27 -28 10 0
58 -17 2 0
55 45 -25 0
29 30 -61 0
55 -31 -7 0
7 6 70 0
-47 35 -50 0
-36 -60 3 0
60 64 70 0
-63 -62 -26 0
-70 49 -40 0
69 -52 -46 0
10 -24 2 0
-24 -13 -44 0
-30 16 -28 0
-19 -22 -2 0
42 -33 -4 0
64 44 -48 0
51 -21 -8 0
48 55 -28 0
-66 7 22 0
32 -60 -3 0
-48 70 61 0
-48 -46 41 0
-58 27 53 0
25 30 34 0
-25 7 -15 0
50 9 -65 0
20 -67 35 0
66 16 -65 0
9 51 24 0
-48 -30 -14 0
-10 61 -35 0
-2 -34 -59 0
24 17 -48 0
59 53 28 0
53 4 -58 0
31 64 -4 0
-24 46 -32 0
22 34 -50 0
-43 -63 31 0
-4 -69 27 0
-4 32 12 0
38 -19 -24 0
2 -23 -11 0
43 -1 54 0
-17 68 -57 0
17 -4 -30 0
26 -68 47 0
-4 62 -36 0
-47 -26 -19 0
58 30 17 0
4 33 -60 0
-55 -61 -59 0
31 -51 -10 0
-51 -20 55 0
19 -58 -55 0
45 -34 19 0
11 -7 -29 0
-69 -17 37 0
36 23 1 0
10 30 36 0
-23 -16 43 0
-49 8 -45 0
14 7 -53 0
41 31 -18 0
-55 49 35 0
-42 68 -3 0
43 -49 28 0
-57 -26 -20 0
70 67 -33 0
-38 14 12 0
33 9 21 0
18 -4 29 0
-23 13 -8 0
-18 13 30 0
63 7 -30 0
-21 -22 26 0
-9 36 -42 0
-10 -57 -9 0
-36 -21 -39 0
67 -68 51 0
5 11 16 0
-50 -61 -58 0
-15 -34 60 0
-15 -45 20 0
43 6 15 0
-24 66 -67 0
56 -36 10 0
2 9 48 0
24 -35 -39 0
-21 29 67 0
20 10 8 0
-42 -62 53 0
29 -57 -56 0
-57 -20 34 0
28 22 3 0
-10 40 6 0
-18 14 35 0
-21 38 16 0
18 -38 49 0
5 65 20 0
-66 -13 24 0
27 2 33 0
-5 -3 6 0
13 68 -14 0
-39 65 -53 0
29 69 -17 0
-11 -18 -10 0
69 -7 28 0
49 -52 -11 0
-49 -39 5 0
-50 3 43 0
55 18 68 0
-8 19 -62 0
65 31 -23 0
45 33 -51 0
56 -10 -53 0
6 -33 -51 0
26 -51 -27 0
51 29 -3 0
-64 26 8 0
-48 -28 -64 0
-51 -15 39 0
60 69 -62 0
40 -3 43 0
3 27 19 0
-61 49 -2 0
50 -12 -66 0
26 31 -4 0
-36 41 -52 0
56 16 -55 0
-61 25 -66 0
62 -15 -51 0
35 44 66 0
-48 -53 -41 0
-1 8 -64 0
14 -24 55 0
-54 -29 23 0
59 14 -13 0
43 8 4 0
43 -66 21 0
-62 -38 -39 0
32 -7 36 0
4 -60 59 0
28 -20 -51 0
57 15 58 0
26 -30 9 0
13 70 -53 0
39 -24 23 0
-69 14 -67 0
62 -39 -27 0
69 -18 -51 0
38 62 17 0
31 -15 53 0
-59 -55 70 0
-35 -22 -25 0
-68 -67 32 0
-68 65 62 0
31 45 70 0
2 -51 48 0
55 22 -68 0
-27 52 26 0
-7 -63 36 0
18 63 -47 0
49 -2 -27 0
5 -7 -11 0
34 7 -48 0
69 -17 9 0
-51 -56 16 0
2 38 64 0
37 67 -8 0
68 10 31 0
2 -7 13 0
-21 6 -49 0
-26 -37 -46 0
-34 32 -6 0
-19 -4 3 0
-52 18 -46 0
-63 -3 13 0
10 7 27 0
3 -47 14 0
-58 69 65 0
-41 40 -12 0
-56 -68 21 0
25 12 20 0
-65 13 8 0
-42 -4 -19 0
21 -8 -65 0
58 57 33 0
-34 -57 9 0
-53 -68 38 0
17 -26 11 0
1 27 64 0
-20 68 40 0
-16 -51 54 0
39 -44 27 0
-24 17 -25 0
-3 -28 66 0
-15 -10 7 0
12 34 -17 0
18 -22 -31 0
-51 -28 -57 0
17 3 24 0
-18 5 52 0
54 -24 -15 0
-64 -27 -14 0
60 37 -64 0
-57 -24 -8 0
-59 60 39 0
49 -53 -41 0
58 -36 -3 0
-19 -18 -35 0
54 35 -64 0
34 -6 -68 0
-26 -34 -13 0
63 -32 54 0
18 36 -24 0
64 -48 57 0
-68 -53 -34 0
9 57 19 0
5 -3 52 0
48 -42 46 0
-39 14 -5 0
-40 -45 -29 0
15 22 -26 0
-36 -64 42 0
-13 32 -62 0
18 29 5 0
-4 12 -39 0
36 -61 -11 0
-54 49 50 0
1 51 -10 0
-11 59 -36 0
43 -11 29 0
64 32 -70 0
13 55 -22 0
19 54 49 0
48 -54 -45 0
-36 -19 -37 0
-59 -43 -18 0
51 33 50 0
70 -14 -32 0
-1 3 44 0
-11 -34 -1 0
-70 30 41 0
36 23 -19 0
-2 6 -11 0
-34 35 53 0
61 -59 38 0
-6 -35 -59 0
