p cnf 70 305
-31 10 17 0
63 -62 -6 0
-6 14 48 0
20 9 11 0
32 2 -30 0
-66 56 38 0
62 59 20 0
-48 -1 62 0
-8 17 44 0
-8 -68 52 0
-30 -4 32 0
11 18 59 0
12 55 59 0
70 -42 -14 0
-55 -9 -52 0
-20 21 -2 0
18 -50 14 0
39 -10 13 0
12 2 6 0
30 69 -8 0
-25 -24 -54 0
29 -41 -63 0
45 -42 2 0
8 63 33 0
59 -26 -53 0
57 24 -36 0
-54 46 -16 0
28 33 -55 0
-2 -47 -32 0
-28 61 -60 0
-62 -58 -2 0
49 -33 34 0
41 26 29 0
-45 -54 -30 0
59 52 -56 0
58 -39 -48 0
25 14 61 0
-62 -53 -21 0
-40 -50 -52 0
-9 -53 25 0
-21 31 -39 0
-37 -38 67 0
-54 -48 -9 0
-70 -43 -64 0
18 52 -36 0
58 -34 -66 0
-55 7 58 0
-1 -9 -3 0
17 32 -18 0
10 46 26 0
-49 47 -29 0
-64 -53 60 0
-11 -65 -34 0
8 60 54 0
-54 -68 -4 0
64 15 -42 0
-1 -16 50 0
61 -6 66 0
19 65 -42 0
48 -32 59 0
30 -47 -19 0
-3 24 30 0
-39 60 -67 0
-63 -12 66 0
-59 -43 -45 0
6 66 36 0
-55 -4 44 0
-8 61 -48 0
48 36 54 0
-36 -32 -65 0
58 51 -1 0
27 25 67 0
-59 34 41 0
67 55 9 0
24 -37 28 0
-22 25 -16 0
-1 -21 39 0
-6 61 -2 0
-44 -42 -47 0
-65 -66 46 0
-38 46 -20 0
-69 57 -56 0
20 19 26 0
-63 -50 -28 0
-61 58 -57 0
-23 66 -9 0
-16 -64 19 0
-67 21 -6 0
-54 -65 -27 0
-66 -33 -52 0
39 -30 54 0
48 -65 -50 0
-20 -34 40 0
-50 -4 21 0
-63 36 53 0
-3 -43 16 0
5 -64 37 0
33 11 16 0
48 -18 -2 0
56 -16 68 0
-59 -15 -6 0
49 15 -31 0
56 13 38 0
39 -30 12 0
-54 43 -17 0
11 51 -58 0
7 18 -5 0
-59 -21 67 0
-3 -22 47 0
54 -16 64 0
-12 20 57 0
21 40 15 0
-15 10 63 0
39 -16 60 0
23 37 -49 0
27 -43 54 0
32 -6 41 0
70 22 -10 0
67 69 58 0
-47 4 41 0
12 -47 55 0
-44 -34 3 0
53 52 -12 0
55 -27 -51 0
53 24 -55 0
-23 -5 -33 0
68 11 56 0
11 -70 -64 0
-19 -61 -40 0
22 69 42 0
5 -61 -62 0
39 15 14 0
70 30 -31 0
-3 -21 50 0
-34 -41 -27 0
34 11 -57 0
22 31 -7 0
30 -10 -43 0
27 -56 -66 0
-16 7 11 0
-58 64 18 0
-53 54 64 0
46 -53 58 0
12 28 53 0
57 -45 6 0
12 -7 -32 0
-8 -59 45 0
-67 16 -64 0
-34 -1 -23 0
9 -45 -34 0
23 13 22 0
-69 50 -68 0
55 56 2 0
48 23 6 0
-29 24 47 0
39 53 -6 0
-63 -62 -29 0
-10 -7 -42 0
-8 -30 64 0
65 62 -5 0
-2 58 70 0
17 -15 41 0
-1 22 -43 0
-53 -70 10 0
49 35 54 0
-58 -30 20 0
-9 -63 -28 0
52 -14 35 0
-51 13 27 0
19 55 -34 0
38 34 58 0
-20 -47 25 0
-12 49 70 0
-43 31 -56 0
54 -64 51 0
25 -19 37 0
-50 -69 -58 0
64 -28 20 0
30 31 -16 0
59 -49 63 0
-49 -6 -15 0
9 -15 -30 0
46 -68 49 0
43 46 -24 0
-36 -69 63 0
-54 29 -28 0
-45 56 -34 0
51 3 64 0
29 9 -11 0
30 -11 -39 0
36 -3 -55 0
27 -28 -2 0
44 23 -53 0
49 -63 52 0
-68 -70 17 0
-31 -21 22 0
52 -26 -8 0
14 -10 70 0
-36 5 41 0
-63 47 -48 0
23 62 26 0
49 -19 60 0
25 -15 -54 0
38 -68 23 0
31 -65 -56 0
47 48 -1 0
17 -26 -64 0
30 69 13 0
-15 -54 -7 0
45 39 34 0
-63 20 25 0
28 70 13 0
-41 -34 17 0
-35 13 -45 0
-12 -39 -44 0
-29 -69 34 0
8 -59 7 0
-26 -13 -58 0
-55 -7 -60 0
10 -13 60 0
-54 -20 -50 0
-47 65 -62 0
-35 1 44 0
68 -4 -13 0
-41 56 30 0
22 -49 35 0
-12 9 -26 0
-15 34 -8 0
15 45 50 0
-21 56 42 0
11 10 14 0
-56 36 38 0
23 53 17 0
-33 38 22 0
-59 41 -46 0
-8 -60 12 0
-53 38 -9 0
39 40 10 0
-46 34 17 0
-20 44 32 0
-68 -34 -38 0
-7 -9 -14 0
29 -57 -68 0
-13 36 -8 0
-39 45 16 0
-17 -46 -69 0
4 7 -1 0
31 45 49 0
46 52 42 0
1 -25 -20 0
24 -23 70 0
-56 -61 13 0
-28 -9 -67 0
-56 25 59 0
-10 50 -68 0
45 -31 -5 0
59 -37 61 0
38 65 -8 0
-5 1 58 0
33 -36 40 0
-48 -30 28 0
16 -9 48 0
-9 49 8 0
68 -67 -50 0
21 34 -56 0
6 -47 -40 0
10 20 -1 0
-11 -18 16 0
-8 -6 -52 0
39 -55 -15 0
65 -44 54 0
-68 26 -45 0
50 -41 -2 0
-36 62 65 0
-26 -5 -56 0
12 -42 -18 0
60 -8 -42 0
24 -59 -30 0
12 48 -1 0
7 47 -46 0
64 57 -30 0
26 23 68 0
36 -16 -8 0
25 53 23 0
62 -63 60 0
63 -32 -2 0
16 67 -57 0
-36 -48 12 0
-52 55 -27 0
-7 -31 -22 0
37 33 -13 0
44 39 -27 0
-12 -63 1 0
25 34 -7 0
50 -56 68 0
15 -18 -29 0
4 -5 40 0
-8 -56 -9 0
-4 -30 53 0
-63 53 28 0
10 -40 -26 0
-45 5 14 0
-59 41 -18 0
53 -61 -55 0
21 -24 -63 0
