p cnf 70 275
56 7 26 0
-28 61 -16 0
-37 43 -61 0
30 66 64 0
6 -15 -49 0
-38 -1 -15 0
-32 16 3 0
38 51 36 0
59 -12 24 0
-13 5 52 0
12 -69 3 0
33 -46 -56 0
-19 -10 47 0
-65 -44 69 0
-35 65 55 0
-60 46 -63 0
-12 1 51 0
-10 -42 -36 0
1 -70 64 0
31 32 -58 0
-57 -15 -21 0
-33 24 20 0
65 -63 15 0
-31 -34 44 0
-52 -27 -70 0
-56 43 57 0
57 42 -56 0
19 35 6 0
-42 31 -55 0
-58 21 20 0
-35 -70 -18 0
-53 -32 30 0
65 27 35 0
-42 49 -25 0
-18 -26 -23 0
22 53 -70 0
-22 -26 -2 0
39 24 61 0
-10 3 -29 0
18 -56 -25 0
47 14 32 0
-64 13 65 0
-67 13 34 0
-49 20 14 0
28 13 -15 0
22 42 -31 0
6 -25 63 0
5 57 -6 0
22 -39 -16 0
68 15 -57 0
-56 31 34 0
6 -66 -50 0
32 14 -62 0
5 58 48 0
-33 -50 -52 0
19 -27 14 0
47 -42 48 0
2 62 55 0
-22 16 -63 0
-61 56 -1 0
32 28 -62 0
-70 28 53 0
-27 46 -12 0
37 -30 26 0
50 44 -16 0
-50 9 -45 0
-49 64 42 0
19 -14 -65 0
-36 -14 -16 0
-45 -3 12 0
53 -30 -65 0
16 -26 6 0
-17 44 33 0
22 -43 -66 0
4 -33 44 0
24 42 34 0
52 -22 40 0
45 -2 -53 0
-44 -21 -63 0
68 -45 39 0
22 -55 -63 0
-61 -24 42 0
21 -26 -66 0
-55 61 -29 0
26 2 29 0
-50 8 25 0
10 -21 29 0
-2 21 16 0
-40 51 33 0
47 -16 31 0
14 -65 19 0
-58 -53 -68 0
7 -34 15 0
41 -17 4 0
-3 -45 4 0
8 12 -7 0
-41 42 67 0
16 -13 -26 0
-26 -39 36 0
-46 -28 -37 0
33 3 43 0
-5 67 43 0
14 -3 28 0
-37 -68 47 0
30 22 -13 0
6 47 -2 0
-42 69 -39 0
6 69 41 0
-41 -26 52 0
-23 -61 17 0
-47 62 53 0
-65 -6 -13 0
8 53 41 0
66 -21 -11 0
18 62 58 0
-50 8 -56 0
33 23 9 0
26 -60 10 0
48 -62 42 0
-70 50 -62 0
36 61 -23 0
2 -26 60 0
-56 55 -37 0
-1 -2 29 0
2 -58 44 0
45 -53 51 0
-23 11 -36 0
54 14 11 0
-13 -7 -59 0
-70 33 15 0
-59 -30 -12 0
-69 17 49 0
23 6 60 0
47 -46 -40 0
51 -8 3 0
20 5 68 0
36 31 67 0
-24 65 10 0
65 24 20 0
-66 -4 46 0
-9 68 48 0
-40 -16 -4 0
20 42 -38 0
21 69 5 0
7 -34 24 0
52 -50 43 0
67 -69 39 0
27 -5 -50 0
5 -52 43 0
30 67 34 0
-10 -8 -60 0
49 53 -38 0
37 -55 -42 0
19 55 -14 0
46 -21 56 0
-21 -47 4 0
58 67 40 0
6 41 34 0
48 56 65 0
69 61 -3 0
4 -55 15 0
-21 67 41 0
47 -38 70 0
-22 -20 68 0
66 52 -39 0
66 -15 -8 0
50 56 22 0
33 30 -58 0
-56 -70 -46 0
-28 -52 -24 0
-55 -34 -53 0
-40 34 -36 0
7 -28 -61 0
-16 -61 4 0
-5 60 -22 0
-56 -69 -4 0
60 26 62 0
-68 70 51 0
44 -7 -17 0
64 45 5 0
69 -50 36 0
36 -48 46 0
-25 -70 -32 0
36 -50 45 0
-28 -68 -26 0
-45 -44 -23 0
-12 42 64 0
4 51 13 0
-53 -2 23 0
1 17 -35 0
-12 61 -32 0
54 -8 70 0
-24 -38 58 0
-53 -21 70 0
62 -14 -21 0
-62 16 -43 0
53 -23 -47 0
7 57 -70 0
-10 27 9 0
60 -65 29 0
-33 66 -42 0
-57 -32 27 0
-8 11 -66 0
-41 51 59 0
-59 37 20 0
-56 36 26 0
27 51 -24 0
40 39 -29 0
45 54 -47 0
-63 30 50 0
-68 -22 23 0
-61 40 -17 0
-42 59 39 0
26 -41 -40 0
-29 28 -59 0
36 -44 -17 0
-18 42 -3 0
-8 9 52 0
52 -65 5 0
47 -60 26 0
-56 68 47 0
-1 -18 54 0
63 -69 -48 0
-3 21 1 0
-23 34 51 0
55 47 -5 0
2 39 -21 0
-59 -61 -51 0
3 -38 -29 0
39 23 -48 0
51 -17 68 0
-58 -61 46 0
-57 -18 48 0
-53 -59 47 0
-38 -10 24 0
29 -38 6 0
-6 -63 52 0
10 2 24 0
-7 65 62 0
13 46 -63 0
-54 28 38 0
19 9 57 0
26 -68 36 0
-47 26 34 0
-66 -8 -9 0
61 32 67 0
-37 53 45 0
-18 11 17 0
33 -50 62 0
-18 -43 28 0
42 33 -45 0
28 46 4 0
47 22 -18 0
37 42 63 0
-15 51 -44 0
-41 60 -70 0
46 -22 56 0
7 -35 -48 0
-32 38 40 0
31 -16 -6 0
32 64 -37 0
-7 -11 48 0
-38 -63 -20 0
-63 -31 -34 0
53 -59 -37 0
-15 25 -17 0
43 -17 -5 0
11 55 -37 0
4 16 12 0
-25 34 63 0
-29 -3 54 0
12 51 56 0
20 -53 42 0
50 -27 -26 0
-60 -2 -27 0
