p cnf 70 280
25 26 -13 0
-6 -39 -9 0
-22 -42 39 0
8 64 45 0
51 7 22 0
39 -32 -15 0
-18 32 38 0
-27 -35 34 0
-40 14 58 0
23 3 51 0
45 6 16 0
57 32 44 0
-32 66 -11 0
66 -9 38 0
-17 3 49 0
-64 -24 22 0
20 56 64 0
29 -18 -24 0
34 43 9 0
16 -10 -28 0
-7 58 59 0
-13 56 32 0
55 -63 -14 0
-25 -70 46 0
-23 54 -12 0
-5 -22 -4 0
-68 -38 -45 0
15 46 -63 0
52 -21 -6 0
-33 -47 -46 0
-46 -20 -11 0
35 -29 36 0
-49 -39 -12 0
-30 -51 -4 0
59 -54 52 0
18 -65 -37 0
1 -47 58 0
52 -43 -11 0
53 69 -24 0
7 -58 33 0
-62 63 26 0
7 1 13 0
-58 -21 11 0
-55 -13 -2 0
1 -5 56 0
60 31 -46 0
-54 -32 -28 0
-56 -53 -33 0
-14 28 65 0
24 -43 39 0
31 -36 -42 0
56 -8 -18 0
-48 57 35 0
-56 -29 -7 0
64 -33 36 0
-41 67 23 0
55 -45 -19 0
-14 -9 -5 0
-59 20 5 0
-29 -40 56 0
-28 -7 -59 0
44 -50 17 0
62 54 51 0
52 -66 -67 0
17 22 64 0
-3 -67 19 0
-48 30 -56 0
8 -26 10 0
-59 69 10 0
-30 51 35 0
20 -55 -9 0
40 70 -58 0
63 -5 29 0
-46 11 42 0
-27 -67 -28 0
-50 -62 67 0
-35 34 -58 0
-48 56 51 0
-7 28 -3 0
-51 -11 -42 0
-7 54 -57 0
65 -26 -45 0
38 -22 -41 0
31 44 -68 0
-62 -54 -43 0
-52 46 -10 0
35 -29 -67 0
57 24 -25 0
-18 60 2 0
-36 25 -20 0
-59 -16 -24 0
-41 -4 -43 0
44 42 20 0
-55 46 -5 0
-57 55 46 0
-41 -32 27 0
-21 -50 -1 0
-65 -6 -18 0
61 -56 19 0
5 65 -6 0
8 -16 -39 0
10 56 67 0
55 17 40 0
66 8 -18 0
10 2 -3 0
-8 -52 -24 0
-45 52 39 0
36 -55 45 0
69 -7 27 0
-4 18 34 0
-13 -29 -47 0
-51 41 56 0
37 45 28 0
-27 23 -20 0
-41 -1 43 0
-31 -27 -7 0
63 36 7 0
-64 53 34 0
65 25 38 0
43 -66 -35 0
62 21 58 0
52 69 40 0
13 19 49 0
-59 -14 -12 0
-63 -30 -46 0
67 5 1 0
22 -37 61 0
-3 -9 -39 0
-9 14 11 0
-49 57 -24 0
5 50 -21 0
69 -2 49 0
-16 -48 21 0
52 -59 -30 0
56 -17 -50 0
70 -44 -28 0
-57 21 49 0
-50 -9 25 0
48 29 57 0
-2 15 -25 0
-15 -25 -46 0
-31 68 16 0
33 30 -49 0
54 -70 42 0
-66 56 -48 0
3 28 23 0
-57 40 -58 0
-30 46 28 0
-46 -36 -15 0
-13 -48 10 0
-54 42 -49 0
43 26 -53 0
-22 18 -58 0
29 -11 -52 0
-3 -35 1 0
41 57 -15 0
-16 -48 4 0
68 5 -7 0
47 26 43 0
8 56 15 0
33 4 67 0
57 -48 -36 0
-31 -54 3 0
-12 41 64 0
34 18 -37 0
38 22 44 0
40 20 41 0
56 11 -21 0
32 21 9 0
12 -65 -11 0
38 44 -34 0
-70 -2 13 0
-11 -44 -43 0
7 -64 11 0
-69 -21 -13 0
-3 -52 -41 0
-47 -18 -34 0
-13 12 69 0
19 -70 1 0
-48 -40 25 0
-15 -54 -58 0
5 47 -41 0
-7 57 15 0
-52 10 1 0
2 -66 -15 0
-19 -9 -56 0
53 66 -6 0
-33 13 -4 0
-23 70 13 0
22 -67 -44 0
-13 -27 -42 0
31 -5 30 0
24 -69 -19 0
40 26 21 0
-68 -41 26 0
-8 -59 -24 0
1 -43 -13 0
-50 -49 -18 0
-41 -10 -23 0
-10 8 14 0
33 -11 -57 0
21 -25 66 0
28 -56 -37 0
19 41 -49 0
-60 7 -49 0
32 6 2 0
-65 -67 -30 0
21 -12 -5 0
23 -12 -36 0
-24 43 31 0
9 65 -61 0
-49 27 4 0
20 39 4 0
-21 7 -49 0
28 70 49 0
54 34 -52 0
-24 66 -18 0
-46 43 15 0
64 -70 22 0
-57 -47 3 0
-43 70 -28 0
67 -37 -39 0
-36 13 -9 0
-8 20 9 0
8 -59 -46 0
60 59 -64 0
48 45 -14 0
-59 -55 60 0
60 45 -53 0
-44 -53 -38 0
18 1 24 0
-40 47 -1 0
-39 10 14 0
-17 -12 -60 0
-34 12 -31 0
38 44 37 0
-44 -18 16 0
-2 -27 -40 0
37 -51 -15 0
-15 -1 9 0
-58 40 49 0
-16 -25 54 0
38 -61 -1 0
16 -5 -48 0
32 60 -30 0
1 11 -5 0
-68 -30 48 0
14 45 -49 0
6 -15 18 0
18 -24 64 0
63 -18 45 0
-31 -59 -70 0
-21 7 41 0
-59 -37 -36 0
-34 -61 -10 0
30 41 5 0
69 -51 -34 0
-12 26 -31 0
-19 52 -33 0
29 19 68 0
44 65 -11 0
-30 29 -34 0
21 14 68 0
-39 48 12 0
30 -52 -41 0
8 67 64 0
16 49 -6 0
-23 45 68 0
20 -41 5 0
70 -24 -53 0
-60 19 -61 0
36 -62 -66 0
-54 9 -13 0
25 65 -36 0
-58 -2 -65 0
-7 17 48 0
34 -56 -67 0
-12 5 4 0
35 47 -16 0
44 45 -21 0
