p cnf 70 270
-16 -22 66 0
-11 14 -57 0
65 -35 46 0
56 -64 43 0
-31 -42 36 0
18 65 6 0
-12 -5 -43 0
66 -56 -58 0
68 -46 69 0
-62 55 34 0
69 59 25 0
31 -52 43 0
61 -59 14 0
-23 -64 -47 0
-2 -7 -5 0
-48 19 34 0
8 -27 -37 0
-37 -65 -24 0
-14 -35 1 0
39 24 62 0
-15 -42 -53 0
13 31 32 0
39 -1 -25 0
-9 8 15 0
-29 -14 45 0
-41 -17 5 0
55 10 -66 0
3 29 -13 0
-27 50 -13 0
-18 42 -36 0
-41 -3 45 0
-19 -70 -52 0
48 -59 -36 0
-45 27 25 0
-9 50 20 0
-16 -45 -50 0
-10 -3 -2 0
-34 11 66 0
-54 47 -26 0
-33 20 21 0
-12 65 34 0
44 -56 2 0
4 -8 11 0
-38 -67 -52 0
-37 -53 19 0
62 -53 -27 0
-12 -27 30 0
-45 -27 33 0
-2 -14 -9 0
12 -22 -27 0
-27 -45 -58 0
33 55 -47 0
40 -44 62 0
-38 -39 -13 0
48 44 47 0
-25 -44 -58 0
68 46 59 0
-25 48 29 0
55 68 -65 0
56 5 -20 0
-11 -47 52 0
46 25 -45 0
34 -56 57 0
51 -52 67 0
-1 -4 -20 0
34 -33 58 0
-64 -38 60 0
-41 18 30 0
30 41 -70 0
-59 61 -44 0
-2 -6 -43 0
-31 64 -51 0
-28 31 -40 0
17 18 67 0
59 32 45 0
-11 -15 -43 0
-21 -24 -50 0
51 -2 -10 0
1 38 -43 0
-33 -25 -43 0
-23 65 -41 0
46 -64 33 0
-36 -21 4 0
-32 50 36 0
34 52 25 0
23 -3 -67 0
-67 -53 -63 0
-49 -7 -15 0
8 -56 -19 0
-2 6 16 0
50 70 6 0
-4 -44 -43 0
61 68 -54 0
38 39 45 0
47 6 30 0
-29 70 10 0
44 -53 49 0
-1 13 -19 0
65 -40 -41 0
14 18 11 0
55 60 -63 0
68 53 -34 0
58 -70 31 0
-38 30 35 0
-21 10 5 0
-21 56 12 0
1 70 -60 0
-14 -61 60 0
-3 -70 65 0
67 -34 -62 0
-68 -53 -54 0
-65 -42 13 0
-20 -42 19 0
34 -2 -6 0
-54 -58 14 0
56 35 37 0
21 -51 -55 0
58 42 56 0
69 63 -23 0
-13 -14 -34 0
-2 -66 33 0
-21 -13 -43 0
49 -34 -12 0
36 -40 21 0
-14 43 18 0
57 63 -59 0
26 7 8 0
-29 -13 70 0
-22 46 41 0
-12 -27 54 0
38 25 32 0
-31 51 43 0
-32 34 64 0
65 17 -42 0
53 -67 22 0
-20 42 -14 0
6 -26 -41 0
-25 -49 13 0
67 50 -31 0
21 25 -34 0
17 8 25 0
-6 -2 -55 0
-37 -20 -53 0
13 8 -37 0
52 -5 -8 0
25 -23 3 0
9 29 -28 0
-9 43 -61 0
37 -29 40 0
-18 -27 -54 0
-47 -59 22 0
5 -55 60 0
23 -49 -7 0
-10 62 49 0
64 -7 -24 0
34 54 50 0
-33 -28 -37 0
7 -26 67 0
39 26 -30 0
19 -10 21 0
-6 51 7 0
-19 -25 -3 0
56 59 20 0
62 -14 9 0
10 61 -70 0
64 54 11 0
31 -69 54 0
5 56 22 0
24 40 31 0
10 15 60 0
-27 54 53 0
-34 42 -13 0
69 -67 -64 0
-44 -46 45 0
-45 33 29 0
-26 59 -9 0
-21 19 -64 0
15 -5 -67 0
-55 22 21 0
24 -51 39 0
-59 23 17 0
-20 -34 -40 0
-65 36 -30 0
25 49 -55 0
-29 33 -23 0
26 30 -46 0
66 5 -35 0
51 -69 59 0
-49 -22 31 0
-39 -43 55 0
-22 57 9 0
-66 -3 -57 0
-45 -49 47 0
-18 10 9 0
-21 -20 1 0
-66 -44 -64 0
-18 10 47 0
-65 2 60 0
-31 1 19 0
-36 -2 -70 0
29 57 42 0
23 41 -52 0
26 49 -53 0
24 -36 22 0
-7 -56 12 0
-37 -38 22 0
66 -5 -60 0
59 51 54 0
4 -9 -31 0
17 37 40 0
29 -21 38 0
-53 3 -30 0
-23 -41 11 0
38 6 -10 0
35 47 57 0
34 63 -59 0
-54 23 -29 0
26 20 51 0
54 52 36 0
33 67 -45 0
32 50 -36 0
-16 1 -34 0
-8 21 -10 0
19 -29 -38 0
-54 59 43 0
-19 46 34 0
-21 31 -36 0
59 -36 -21 0
3 -36 67 0
28 -9 4 0
2 -52 53 0
-20 34 -43 0
40 -28 -64 0
-61 47 -25 0
-43 11 -26 0
-6 35 64 0
10 -1 59 0
-42 -18 61 0
3 -18 47 0
21 42 2 0
-23 69 -2 0
47 -12 54 0
-14 -65 18 0
2 6 -39 0
30 37 50 0
-18 63 -28 0
63 -65 -62 0
24 1 5 0
-65 33 -62 0
-12 -16 -53 0
-55 -36 14 0
24 21 45 0
14 4 41 0
42 -44 -26 0
29 -46 -64 0
-59 -63 30 0
-27 -19 49 0
-20 -46 53 0
-50 -27 -8 0
5 36 -43 0
-33 -56 22 0
58 20 47 0
-66 -26 -13 0
10 11 -22 0
-49 -3 33 0
68 -57 -10 0
5 -65 45 0
41 -22 60 0
-44 -47 46 0
-4 7 -9 0
