p cnf 70 270
-4 -33 -68 0
24 -10 7 0
-28 -6 -66 0
64 30 -11 0
-65 -38 -21 0
21 -18 23 0
4 53 -1 0
-24 18 -42 0
58 69 -55 0
-60 -22 51 0
2 -41 -69 0
66 16 14 0
56 -19 -31 0
-52 -37 -43 0
50 23 -41 0
-67 5 -32 0
-44 16 42 0
61 -26 -23 0
1 14 64 0
-4 -34 -52 0
40 -24 -11 0
15 -28 -1 0
-21 69 32 0
-47 67 -7 0
-14 -31 40 0
-17 28 -34 0
-61 -7 42 0
-60 50 -55 0
9 -49 52 0
-24 -21 35 0
-50 -5 69 0
-39 46 67 0
12 -60 17 0
3 24 -33 0
-70 9 14 0
22 7 -46 0
-12 31 56 0
46 -15 64 0
-22 -49 -40 0
38 32 29 0
-51 -50 63 0
-16 -15 47 0
-47 -24 61 0
-67 -10 39 0
-56 -4 -40 0
-28 11 -53 0
-64 -7 -44 0
-42 35 9 0
58 -24 22 0
27 38 59 0
38 -59 -31 0
66 65 68 0
4 11 -44 0
41 7 35 0
-26 -22 -31 0
56 23 -21 0
-26 4 43 0
41 -39 29 0
26 -36 47 0
29 -31 -50 0
47 -33 -7 0
23 -17 53 0
-41 69 -23 0
-39 23 -52 0
-66 -48 -61 0
66 32 -54 0
-31 -38 -19 0
-49 -25 66 0
60 -6 -4 0
-7 52 65 0
-17 -54 65 0
-56 -39 49 0
57 -65 -28 0
49 -61 -46 0
-33 7 30 0
41 7 33 0
-56 54 53 0
8 -5 17 0
-41 31 -67 0
-22 56 -50 0
-12 26 41 0
3 -4 66 0
-17 -47 24 0
-61 -16 14 0
-15 46 59 0
-53 -55 -40 0
62 -10 8 0
46 5 32 0
-25 -15 -22 0
-43 8 -36 0
22 17 10 0
21 -36 42 0
49 36 60 0
5 37 22 0
40 -27 15 0
-34 -5 23 0
-41 68 15 0
-49 14 56 0
-19 31 22 0
1 35 38 0
26 -4 10 0
-59 -63 38 0
-64 -38 50 0
2 -23 53 0
-16 -12 50 0
-45 30 18 0
39 -15 -14 0
10 7 22 0
-61 -48 -5 0
-66 36 -2 0
-69 -45 47 0
-17 -68 -45 0
-19 -64 31 0
-5 23 30 0
9 -45 19 0
54 -52 67 0
-2 46 66 0
65 68 39 0
70 60 39 0
13 1 43 0
-62 -68 -32 0
31 -16 -66 0
1 60 -7 0
36 35 57 0
-48 -19 53 0
-59 -5 -60 0
-70 37 22 0
-62 -55 44 0
-58 -45 -59 0
-18 -11 -65 0
24 -20 -56 0
32 -47 -44 0
65 30 40 0
-32 -65 16 0
48 -70 36 0
52 -11 -27 0
17 -19 -36 0
46 -38 52 0
9 -36 -21 0
18 -50 -68 0
69 -2 13 0
27 -16 -28 0
-12 37 33 0
43 -45 8 0
-1 43 4 0
42 44 49 0
49 65 38 0
4 -63 23 0
-64 40 60 0
-68 -15 65 0
11 12 -51 0
-29 -51 11 0
-19 53 -51 0
9 -2 45 0
34 -60 46 0
32 -28 -61 0
36 19 1 0
-22 57 33 0
13 -32 -29 0
24 33 53 0
-70 -16 12 0
-58 2 5 0
53 48 2 0
-56 -8 35 0
-7 -68 70 0
-65 -17 7 0
45 -60 -10 0
63 -51 14 0
18 -24 -35 0
14 54 41 0
29 -59 64 0
38 40 29 0
61 26 38 0
-8 -66 48 0
17 -26 55 0
38 22 42 0
35 68 -29 0
18 14 -40 0
-31 -7 -38 0
-27 -6 11 0
15 11 -38 0
55 8 14 0
-26 -9 6 0
-6 46 -9 0
24 -14 69 0
-45 49 14 0
-36 39 61 0
27 -18 -26 0
16 54 3 0
39 -7 60 0
21 6 -8 0
-67 -44 25 0
-4 -53 -48 0
-55 -14 46 0
-6 50 -11 0
-27 -17 67 0
17 -53 -69 0
19 -2 -35 0
-60 -58 54 0
-23 -37 -11 0
57 -28 -47 0
12 2 -53 0
46 56 -32 0
-30 -14 64 0
-37 14 60 0
43 -32 -61 0
-58 -20 -33 0
62 -65 -55 0
-4 9 -22 0
6 33 63 0
-13 -33 23 0
5 -21 -65 0
-47 -23 -59 0
-67 -2 -18 0
-21 -4 -31 0
17 -46 51 0
-10 3 34 0
57 30 41 0
50 -31 40 0
61 -65 -10 0
7 23 -70 0
-6 7 -61 0
9 -59 -65 0
-13 2 -11 0
21 -41 48 0
-5 -41 -34 0
16 58 -38 0
16 38 -62 0
50 54 -39 0
-2 -26 -12 0
48 16 -21 0
2 58 14 0
66 9 11 0
28 -59 21 0
-55 -26 -33 0
-55 36 23 0
-47 22 -59 0
-60 38 53 0
53 26 -27 0
-34 38 -48 0
35 -36 3 0
-4 -48 -33 0
-21 20 -12 0
54 21 -35 0
-60 58 40 0
-8 -5 38 0
11 30 22 0
-43 -66 40 0
-42 -37 -68 0
-19 46 40 0
-66 -23 -51 0
66 2 22 0
-67 28 21 0
-68 19 -24 0
14 4 -63 0
15 -3 -40 0
-32 53 -66 0
-69 -63 30 0
-17 3 29 0
30 22 9 0
45 19 47 0
-57 -69 70 0
-28 -60 35 0
-4 59 -66 0
25 -32 46 0
-28 4 -14 0
39 70 41 0
14 -68 56 0
-44 -5 39 0
4 24 6 0
