p cnf 70 300
37 62 -18 0
-32 -26 -7 0
57 -49 40 0
-58 16 5 0
-55 -14 -7 0
-62 -37 -44 0
-15 -40 -66 0
33 -57 -31 0
8 15 -41 0
-21 11 -9 0
-20 -10 46 0
19 -41 -56 0
-66 -17 3 0
69 -51 -56 0
67 63 30 0
-40 4 21 0
57 -3 26 0
39 -54 -63 0
-7 49 45 0
28 -32 33 0
32 -36 -46 0
66 40 22 0
-3 -53 2 0
54 -1 7 0
-47 32 -15 0
-62 -60 45 0
-9 -51 37 0
4 -64 62 0
26 27 43 0
60 -28 -5 0
14 -53 -59 0
-12 1 -8 0
64 -35 26 0
28 -17 15 0
-18 48 42 0
63 19 31 0
-39 54 -4 0
-30 17 53 0
49 31 55 0
57 -33 2 0
9 -21 11 0
20 -27 -54 0
-23 28 22 0
-59 -35 66 0
-37 -34 -35 0
13 60 -59 0
45 50 6 0
49 -5 37 0
14 17 -63 0
-6 39 7 0
-26 -44 21 0
-57 -21 43 0
1 15 -28 0
-59 -65 54 0
31 -32 60 0
28 -23 -46 0
6 46 13 0
21 24 42 0
-63 -9 -55 0
53 40 58 0
-52 17 -7 0
11 24 -39 0
55 -11 63 0
28 -7 -69 0
-24 -30 67 0
-61 66 -1 0
-15 -27 -43 0
-59 30 -38 0
-18 -2 -68 0
12 -36 -6 0
11 6 -57 0
-6 47 -53 0
5 -18 -9 0
66 -45 -61 0
55 -67 -60 0
-13 -45 40 0
49 64 -60 0
50 13 -11 0
11 -45 36 0
-39 25 64 0
-69 -16 3 0
19 1 10 0
13 -58 -16 0
-34 57 -33 0
-17 58 -20 0
-56 -58 28 0
51 -11 -18 0
1 56 -65 0
-42 13 20 0
-2 9 -47 0
25 -2 -1 0
-19 -8 -66 0
-51 26 -54 0
70 -44 64 0
56 -20 70 0
-64 51 12 0
58 3 36 0
-55 14 -50 0
-24 32 25 0
31 -66 57 0
21 70 -62 0
37 -56 -7 0
7 -12 -49 0
-69 59 3 0
28 -10 66 0
-36 -35 -54 0
-42 43 5 0
8 -13 31 0
-60 49 -23 0
-70 -39 34 0
39 23 -65 0
-66 -2 -65 0
-48 -67 -36 0
13 24 -22 0
-9 -64 11 0
-61 40 -69 0
-64 -11 63 0
17 8 -7 0
-32 21 -39 0
-69 -41 -43 0
69 -34 17 0
-28 9 55 0
69 31 -60 0
22 64 56 0
-14 59 -48 0
23 34 -61 0
3 56 -43 0
29 -28 -26 0
38 2 7 0
-23 57 -65 0
24 52 55 0
63 44 -16 0
-64 67 -32 0
1 -19 16 0
59 -21 68 0
13 55 43 0
22 53 -64 0
33 61 42 0
24 -48 -13 0
36 48 60 0
-40 23 -36 0
-52 -69 -24 0
65 28 27 0
-48 35 -16 0
-2 29 -31 0
-66 59 -54 0
41 55 -10 0
28 -18 24 0
-14 -70 -53 0
14 39 25 0
51 -68 -23 0
45 -21 7 0
-54 -28 19 0
-35 -8 46 0
7 33 68 0
-69 -63 56 0
-35 -6 14 0
39 56 59 0
-50 21 55 0
-15 1 25 0
20 1 53 0
30 14 10 0
-16 12 -18 0
48 -25 -61 0
18 10 60 0
12 16 -35 0
53 -8 -68 0
-34 56 -25 0
-52 -55 37 0
9 51 29 0
-36 62 -1 0
-53 7 37 0
49 -37 -6 0
57 67 10 0
-66 -50 -41 0
29 -61 -52 0
68 -7 38 0
-33 -26 -63 0
-21 -52 -17 0
37 -30 -34 0
70 -3 -33 0
16 -65 36 0
43 -13 45 0
-46 55 4 0
-40 39 10 0
-68 7 -26 0
56 24 15 0
69 -27 -21 0
-6 -10 61 0
-69 -67 42 0
52 60 56 0
-49 -67 -48 0
45 69 55 0
-8 -45 26 0
49 51 26 0
39 -12 52 0
1 -54 69 0
42 26 -57 0
32 4 -23 0
-8 22 -65 0
30 47 38 0
-69 63 8 0
13 -51 -53 0
34 -9 51 0
11 65 -12 0
-21 -52 -14 0
-49 42 -4 0
-43 -60 66 0
49 -61 -68 0
16 48 19 0
16 -67 52 0
-18 -43 -64 0
-28 40 -20 0
-17 5 40 0
-39 -59 24 0
59 -56 -18 0
-1 -62 7 0
32 39 68 0
61 68 15 0
8 -45 -36 0
-47 -19 29 0
-25 -14 -49 0
-15 52 -5 0
37 39 43 0
47 -38 -52 0
39 2 51 0
-9 11 -57 0
31 59 60 0
-17 49 -32 0
-38 -59 -50 0
64 -16 68 0
68 -64 46 0
-5 -54 -26 0
65 1 22 0
27 -63 47 0
57 -38 15 0
22 19 61 0
68 62 65 0
69 9 -61 0
-6 5 45 0
49 -5 -38 0
-58 18 27 0
38 23 -53 0
-45 1 58 0
-22 5 -31 0
54 -37 -57 0
56 -34 16 0
63 -2 29 0
68 -17 -8 0
-60 -68 42 0
9 -40 44 0
24 -1 20 0
14 -56 15 0
-47 -12 36 0
-27 35 -69 0
-55 20 -69 0
45 -33 44 0
64 -25 -47 0
46 -53 2 0
62 7 -8 0
42 4 37 0
67 -24 -9 0
53 54 70 0
60 -30 39 0
-27 -54 -22 0
21 -20 44 0
-39 -56 65 0
61 68 -43 0
-62 6 25 0
2 1 15 0
-13 -56 -46 0
4 54 43 0
-67 14 -63 0
-26 -50 37 0
-70 37 -33 0
-4 -44 28 0
-34 -45 59 0
-40 -38 69 0
-40 38 26 0
22 60 51 0
52 66 36 0
-11 -34 -42 0
11 -27 -64 0
58 51 -29 0
-4 -28 10 0
44 -47 -53 0
56 -48 67 0
-67 43 -40 0
28 70 32 0
40 51 27 0
18 56 43 0
1 -47 42 0
-58 44 31 0
-51 -70 26 0
-10 -27 29 0
66 -18 55 0
-13 61 70 0
-19 -10 30 0
-52 46 -29 0
-24 16 53 0
