p cnf 70 290
-33 37 32 0
49 -9 14 0
-66 37 28 0
-3 49 -42 0
-19 48 -70 0
28 -54 -67 0
23 -36 -55 0
30 61 55 0
-55 21 -45 0
42 -8 21 0
11 40 23 0
57 65 69 0
7 68 -28 0
-18 61 -25 0
9 -37 65 0
-43 -8 -17 0
67 24 36 0
24 -53 1 0
10 -23 -55 0
-24 -60 17 0
63 -66 24 0
51 -5 -18 0
-27 -55 -11 0
-46 25 43 0
22 -58 -1 0
-27 -54 -14 0
-39 8 16 0
-66 55 67 0
-14 -69 -51 0
36 -32 24 0
-12 -11 47 0
-70 -17 -14 0
-66 43 -30 0
47 63 69 0
-17 4 27 0
-56 24 16 0
7 -12 69 0
32 20 44 0
-23 -56 -51 0
-7 33 -61 0
-22 38 -63 0
-1 7 70 0
19 -50 62 0
-64 50 -2 0
44 -1 68 0
11 -14 50 0
55 -68 58 0
43 -5 61 0
32 -66 -1 0
-39 -9 44 0
7 -31 -64 0
67 -68 41 0
-17 31 58 0
39 12 -34 0
27 -26 -46 0
46 49 -21 0
-21 14 -18 0
-48 -66 -68 0
-18 -67 -68 0
-16 -43 -59 0
-6 -28 -23 0
-43 -11 5 0
-7 -41 -30 0
-69 15 60 0
-32 -26 -3 0
52 50 -62 0
64 -47 -21 0
-30 63 60 0
8 42 -51 0
-56 32 24 0
-20 -62 -10 0
-41 68 20 0
-6 63 -41 0
-10 -50 69 0
-69 -4 61 0
32 65 22 0
-47 35 12 0
7 11 -23 0
41 -31 -14 0
-23 -1 -52 0
-33 60 -34 0
70 -63 -68 0
39 24 16 0
-42 49 30 0
38 -42 54 0
5 4 -62 0
14 43 63 0
-2 -51 -10 0
-3 4 -61 0
7 13 10 0
-65 -64 -50 0
26 30 10 0
-7 68 69 0
63 -44 58 0
37 -27 25 0
39 -27 31 0
45 -66 -26 0
-43 48 49 0
-28 -32 -46 0
15 45 -4 0
-47 20 3 0
38 -53 -11 0
-52 -1 55 0
46 -36 22 0
65 21 -25 0
-42 -64 41 0
-26 20 -22 0
6 18 64 0
-55 4 67 0
51 21 -6 0
-16 57 52 0
-69 8 27 0
-54 66 16 0
-49 54 30 0
41 30 47 0
-14 32 -50 0
-27 54 -38 0
48 -42 15 0
37 66 59 0
-8 56 -14 0
42 -29 -51 0
-57 25 -35 0
-59 26 15 0
42 63 -10 0
-62 26 6 0
-40 -39 -35 0
-59 -33 -12 0
36 38 -24 0
16 41 -69 0
48 -7 16 0
13 8 14 0
42 10 -68 0
-23 32 7 0
-43 -68 -53 0
44 41 35 0
-68 -69 34 0
35 -22 42 0
-44 -9 -69 0
39 -41 16 0
41 3 24 0
66 -60 -3 0
-65 59 19 0
-1 -67 -54 0
-7 39 -48 0
-49 -29 -18 0
12 -52 32 0
68 14 40 0
47 35 -29 0
30 -50 40 0
-41 29 -40 0
21 24 -64 0
-29 -34 -61 0
-44 54 7 0
15 -40 -46 0
-39 -38 23 0
26 -51 -63 0
-35 53 64 0
-28 -35 55 0
17 27 15 0
-45 -19 50 0
59 -43 -64 0
-32 -39 37 0
29 -27 -15 0
12 -6 -40 0
-28 -26 -61 0
31 70 -44 0
61 64 -26 0
9 -25 -16 0
-65 38 -19 0
1 -10 33 0
-56 -33 13 0
32 57 3 0
63 -25 23 0
19 33 -62 0
20 5 28 0
26 -13 33 0
-10 -32 57 0
21 13 -1 0
-65 -53 -58 0
-43 -2 34 0
-38 -52 -31 0
69 -20 51 0
15 14 49 0
-56 22 -34 0
51 32 7 0
-47 -2 -6 0
-42 -69 -21 0
-26 -58 34 0
-30 50 28 0
-18 -46 -1 0
65 -35 45 0
-32 24 55 0
58 -61 -3 0
-1 18 -51 0
-11 48 -61 0
12 69 17 0
26 22 -6 0
-19 -36 24 0
-39 -52 41 0
-59 21 -37 0
9 37 -24 0
68 48 8 0
56 67 17 0
37 -21 -32 0
57 -15 -61 0
31 -56 49 0
-49 20 -23 0
-44 35 59 0
-4 -26 27 0
5 44 -19 0
-26 -47 21 0
-69 27 16 0
-33 6 -26 0
15 -46 27 0
-44 -57 -50 0
-5 15 -9 0
23 57 34 0
2 3 47 0
-12 30 42 0
16 63 25 0
63 -66 -56 0
22 50 -46 0
-53 55 50 0
32 -21 -31 0
-14 -36 27 0
10 24 63 0
-57 50 -40 0
14 -51 58 0
57 -30 4 0
38 -36 -26 0
23 -31 63 0
-2 -13 -7 0
32 56 -57 0
-27 26 24 0
14 58 -48 0
-15 -8 26 0
24 -61 43 0
8 29 -7 0
55 -60 40 0
-2 61 33 0
13 66 -67 0
-23 59 -32 0
68 -61 9 0
51 19 6 0
-56 16 -10 0
49 35 -5 0
-54 -45 38 0
-56 12 67 0
56 -60 -18 0
-40 -45 29 0
18 46 17 0
-50 -43 23 0
12 -63 -14 0
-2 43 15 0
-35 -70 -6 0
-14 -65 30 0
-49 -27 52 0
11 -49 21 0
10 -32 54 0
-66 -3 20 0
-22 20 31 0
12 22 36 0
-49 30 58 0
-42 11 -56 0
-39 -41 -5 0
-18 -20 -35 0
61 -68 7 0
7 4 41 0
-17 -2 25 0
69 48 -22 0
14 -8 62 0
32 20 11 0
23 -7 -39 0
-48 17 32 0
34 48 37 0
15 -9 -54 0
65 56 -57 0
33 57 27 0
-10 15 29 0
27 59 -65 0
-38 -52 -32 0
-31 -57 30 0
9 11 -34 0
-40 -70 -64 0
-26 -53 51 0
7 1 11 0
45 23 70 0
40 -49 20 0
-42 52 -25 0
-51 -4 -25 0
