p cnf 70 260
-23 -43 20 0
53 -35 59 0
55 -63 61 0
-28 -60 -47 0
-67 -48 49 0
-49 -8 39 0
14 29 68 0
-23 12 19 0
-33 28 54 0
40 67 41 0
30 67 38 0
37 -64 6 0
66 19 -70 0
-8 -26 -35 0
50 -18 20 0
-6 -52 -45 0
-11 63 -65 0
-28 -55 35 0
44 6 -66 0
-69 30 5 0
27 41 -54 0
-4 65 -40 0
-60 26 -46 0
1 9 -11 0
-69 47 8 0
69 65 26 0
24 45 29 0
33 -51 -69 0
60 55 -57 0
-28 -17 -43 0
-38 -63 18 0
66 17 -20 0
-20 52 10 0
-13 24 -9 0
62 46 -53 0
-64 -62 -69 0
27 -17 -21 0
-62 5 50 0
-26 25 -20 0
10 -40 -23 0
39 -21 -18 0
22 -38 -13 0
3 -60 14 0
45 66 -22 0
-32 38 -21 0
48 30 27 0
60 -3 18 0
14 68 45 0
-69 -23 38 0
18 -16 63 0
-62 55 -19 0
-62 -13 -1 0
-55 -46 -11 0
-27 -63 61 0
-56 13 61 0
56 39 -69 0
9 12 39 0
28 34 -3 0
-19 -34 -62 0
-36 46 6 0
16 -31 -68 0
63 -41 -43 0
-35 67 14 0
56 9 68 0
47 60 -35 0
69 -13 -41 0
-41 36 69 0
62 26 32 0
24 64 60 0
-66 -7 34 0
-14 -47 -66 0
6 3 -40 0
51 60 -11 0
-40 -22 58 0
51 -41 -33 0
21 -15 -11 0
18 -19 22 0
70 -6 18 0
-18 53 40 0
-32 -19 -52 0
-38 2 -53 0
-59 64 39 0
-30 -32 49 0
24 -4 -33 0
-19 43 -52 0
-26 -69 19 0
-28 37 -53 0
58 49 -42 0
-58 -64 63 0
-55 46 -22 0
-58 7 -34 0
-40 -37 19 0
2 30 -29 0
-32 -33 14 0
10 -44 -5 0
17 48 -39 0
14 46 -4 0
34 -41 35 0
-9 21 -62 0
-24 -10 5 0
-44 -25 -40 0
53 64 22 0
-25 -53 52 0
31 -9 -21 0
40 -6 -28 0
30 -65 59 0
-50 47 7 0
42 40 -8 0
58 68 51 0
-18 17 -68 0
17 63 -16 0
52 -60 -69 0
-7 -52 32 0
69 54 28 0
31 33 -41 0
22 -27 -65 0
-7 55 50 0
59 -10 65 0
2 -26 -55 0
-3 -10 49 0
48 -66 -49 0
42 -34 47 0
15 44 -29 0
-58 -37 16 0
-17 5 -6 0
5 41 68 0
-26 -45 27 0
-53 38 9 0
-21 12 2 0
14 35 44 0
-13 -32 34 0
57 -7 -42 0
-43 -11 34 0
69 16 51 0
42 -22 -37 0
39 -25 60 0
-39 -1 68 0
36 -32 27 0
26 61 32 0
18 12 69 0
-12 -45 70 0
3 -8 -43 0
53 61 59 0
58 55 -70 0
37 62 -66 0
-1 16 -54 0
50 -22 9 0
-27 34 -7 0
66 21 7 0
-45 39 -67 0
29 61 66 0
45 10 -42 0
67 69 59 0
-42 25 -33 0
-67 24 43 0
-13 51 -35 0
44 35 10 0
-70 49 47 0
-12 44 48 0
-48 -18 5 0
67 -70 22 0
-69 70 20 0
67 23 43 0
-39 -29 -33 0
-45 70 24 0
65 64 6 0
34 46 19 0
3 12 20 0
65 20 -4 0
-41 6 -25 0
30 -52 9 0
-36 65 9 0
51 38 -1 0
-17 14 4 0
8 -4 32 0
33 -68 11 0
33 -10 30 0
67 -43 26 0
-39 70 19 0
25 43 -38 0
-14 -46 -27 0
-62 39 47 0
32 -67 -52 0
-56 53 28 0
-59 -25 67 0
13 15 27 0
-39 57 14 0
18 34 -53 0
-67 35 -7 0
-21 56 -60 0
-14 60 -38 0
27 2 32 0
69 50 -11 0
-45 -63 -20 0
-60 68 1 0
-68 58 31 0
45 -2 28 0
-30 29 37 0
53 43 -18 0
64 44 -27 0
-29 -56 44 0
-59 16 -27 0
22 54 -28 0
65 29 15 0
-52 53 -17 0
16 -22 29 0
-6 -58 23 0
12 70 -2 0
2 -18 -46 0
30 -5 -40 0
32 -51 -5 0
61 -5 8 0
47 -29 50 0
6 25 63 0
20 48 -13 0
-69 14 -2 0
-19 -53 -28 0
-25 11 -18 0
-53 66 8 0
-51 -23 46 0
5 63 31 0
62 21 -47 0
31 46 28 0
-63 -1 -52 0
-53 47 50 0
20 36 -45 0
-13 -2 -9 0
40 17 14 0
-19 47 -59 0
44 -31 18 0
-2 -12 63 0
21 -27 -46 0
-8 -61 -51 0
48 -9 49 0
-20 43 37 0
-38 60 64 0
-14 -5 -44 0
-26 17 -27 0
15 24 -36 0
-64 -34 -23 0
46 -57 -14 0
7 -42 -20 0
57 -18 -59 0
-54 -11 -25 0
68 -8 61 0
34 -69 5 0
-16 8 63 0
-8 23 17 0
12 -52 -66 0
5 47 -29 0
57 -54 12 0
-40 60 53 0
-45 59 49 0
4 -23 -36 0
-17 55 -53 0
9 65 38 0
64 -16 61 0
69 56 -19 0
-27 46 -16 0
34 40 22 0
