p cnf 70 310
37 -30 -54 0
12 -25 -5 0
67 14 -13 0
-70 -17 -26 0
11 -23 -31 0
5 11 -38 0
-69 25 42 0
-27 21 -43 0
46 13 -1 0
-63 14 46 0
-9 52 30 0
-67 -27 55 0
-9 32 -42 0
36 19 -52 0
26 16 -18 0
9 -1 -43 0
-10 -67 15 0
-46 17 41 0
35 61 70 0
-44 24 36 0
26 -68 -19 0
-25 58 13 0
50 -39 17 0
62 -25 -50 0
36 54 25 0
31 34 44 0
64 -1 -7 0
-23 28 12 0
10 26 -27 0
12 8 38 0
-15 -35 26 0
-17 56 69 0
56 3 12 0
-8 -64 -4 0
-29 -64 -25 0
-48 65 61 0
20 53 -7 0
64 -63 -11 0
-33 27 -5 0
-38 32 53 0
5 -27 47 0
49 -46 22 0
-36 -66 60 0
70 -9 66 0
30 20 -19 0
-9 -45 -4 0
39 11 19 0
31 39 -41 0
-52 -60 -18 0
-13 41 68 0
-6 56 -18 0
2 -69 52 0
34 -27 56 0
-33 -55 -38 0
-2 64 47 0
40 -23 -4 0
19 -24 -6 0
-14 -39 -42 0
-39 9 42 0
-42 -25 -53 0
-25 -5 36 0
54 -6 2 0
14 56 -35 0
41 -29 31 0
-36 21 22 0
10 47 -48 0
63 -56 41 0
-65 -13 -31 0
51 16 56 0
-26 -12 -5 0
6 -67 11 0
-42 50 -3 0
6 12 32 0
20 -29 -23 0
-35 45 38 0
-43 -16 25 0
-48 16 -14 0
62 1 56 0
10 63 -57 0
60 -53 -21 0
-56 -23 41 0
-10 66 28 0
-68 -67 60 0
63 35 62 0
28 -43 -69 0
-66 -69 39 0
-58 -56 4 0
3 -15 35 0
-12 26 -50 0
62 -10 -55 0
-11 44 -18 0
57 -37 -36 0
18 8 -42 0
-70 -24 15 0
-39 41 -29 0
-32 -21 -1 0
-23 13 -9 0
-11 -55 -34 0
36 -25 -56 0
16 -62 -13 0
23 11 -17 0
-49 67 26 0
55 -45 2 0
-46 11 29 0
36 22 -44 0
-59 -15 19 0
21 33 -1 0
8 -30 6 0
-31 19 -17 0
13 55 50 0
31 -25 70 0
-55 50 68 0
-27 -70 55 0
25 -30 60 0
-28 -39 -60 0
-14 57 -61 0
-55 -41 -66 0
70 -23 38 0
4 -13 -46 0
22 45 19 0
-58 1 48 0
15 -18 -52 0
-1 -2 -29 0
-13 8 7 0
38 30 -26 0
17 -5 25 0
-12 62 70 0
-23 -51 16 0
51 69 -56 0
-65 -16 62 0
13 1 -66 0
6 30 -14 0
2 42 -19 0
-61 -25 -24 0
-48 3 -40 0
-68 13 67 0
-35 -8 25 0
68 69 -55 0
-32 -56 -19 0
-67 65 50 0
66 16 23 0
-57 60 -10 0
-10 -50 -46 0
23 -26 -66 0
35 -50 49 0
-8 -21 24 0
-17 -36 -6 0
27 24 -7 0
-12 4 -49 0
-35 -42 56 0
-70 50 -59 0
-11 48 -64 0
23 69 30 0
32 -8 -4 0
-49 -13 -46 0
52 -45 -48 0
2 31 32 0
-19 59 49 0
-15 -40 69 0
-33 24 -8 0
-18 -59 -39 0
37 -9 -54 0
63 5 -14 0
-68 -66 -47 0
43 -12 -1 0
-8 12 37 0
16 -52 -23 0
-7 35 3 0
-53 -14 -5 0
-63 -66 11 0
-56 -15 55 0
41 -52 45 0
-48 -14 -50 0
-9 -39 -27 0
-3 17 -55 0
70 -27 -45 0
-43 23 -13 0
2 -60 -14 0
12 -64 -20 0
39 32 -46 0
-18 -46 -7 0
-69 -21 16 0
-44 30 -42 0
16 58 -5 0
2 -37 -29 0
60 12 27 0
29 -11 -50 0
69 55 -65 0
47 -50 34 0
37 -33 -28 0
58 -65 -27 0
40 -57 -54 0
-12 32 53 0
-21 39 -58 0
28 52 -38 0
-42 -27 31 0
13 -1 -54 0
8 23 64 0
-21 -40 17 0
-66 10 -2 0
29 -67 21 0
-2 -54 -24 0
-48 -69 30 0
27 70 49 0
67 54 -55 0
39 29 -64 0
-13 -52 55 0
55 12 28 0
27 14 -7 0
-17 -46 -67 0
-50 6 34 0
-17 -50 -25 0
-46 -59 -54 0
60 62 -9 0
-1 -44 35 0
-16 65 63 0
66 65 -18 0
20 54 -2 0
-49 6 -48 0
53 -1 -9 0
-4 -58 47 0
-67 70 39 0
47 -7 -34 0
3 -38 31 0
-24 42 -48 0
65 51 -44 0
41 3 -37 0
-27 52 69 0
58 5 -6 0
-22 43 12 0
-8 10 -56 0
-22 -13 -15 0
-37 -40 28 0
-57 -11 29 0
27 8 40 0
-17 -32 23 0
38 -41 -51 0
12 -36 48 0
-47 56 19 0
13 -55 -44 0
55 45 -28 0
59 -3 -38 0
53 -54 23 0
-50 61 32 0
26 -70 25 0
-70 52 -38 0
34 -31 -58 0
-57 -33 19 0
-13 -7 -22 0
22 -43 2 0
-60 32 -4 0
69 11 3 0
-41 -32 -70 0
-14 -58 -40 0
-57 -40 -1 0
59 -49 -15 0
9 -47 44 0
-35 -1 45 0
69 -31 1 0
-6 -18 -29 0
-37 -34 -10 0
6 8 -69 0
-57 -64 33 0
68 -31 65 0
-28 -55 -64 0
49 63 -51 0
48 17 -14 0
-54 24 60 0
-66 -69 55 0
26 -42 30 0
-16 64 35 0
42 51 -60 0
-4 -2 35 0
17 -20 -34 0
-40 -50 55 0
61 2 7 0
26 -3 -52 0
-58 -51 -6 0
13 6 36 0
64 29 -36 0
-1 -50 53 0
26 -34 -18 0
-11 -55 -67 0
-68 41 27 0
38 17 -28 0
-46 -16 22 0
-33 56 28 0
27 -63 25 0
9 -53 -65 0
-10 7 -59 0
38 51 -56 0
67 8 -53 0
-35 -63 -10 0
16 64 7 0
-17 55 -19 0
31 -25 52 0
-53 -4 -57 0
-46 -27 16 0
67 26 52 0
-38 -69 -10 0
-55 -70 65 0
11 2 3 0
-37 -66 14 0
59 -34 70 0
-12 36 16 0
-10 14 -50 0
52 -40 -33 0
12 -59 -69 0
-59 65 -3 0
66 48 59 0
