p cnf 70 295
-14 43 70 0
37 -61 41 0
63 -43 27 0
1 23 34 0
-68 -48 -35 0
-34 -63 44 0
-39 -53 65 0
-24 4 15 0
31 37 -11 0
4 -48 -36 0
40 69 67 0
-48 -65 -3 0
47 -16 -50 0
67 -48 32 0
-32 -40 59 0
17 63 -54 0
65 -10 -33 0
-25 67 6 0
-13 25 -35 0
-68 -54 -60 0
61 -55 43 0
52 9 -51 0
61 23 -70 0
-70 -33 56 0
41 -22 -56 0
-53 58 -4 0
-32 -4 59 0
-16 -23 46 0
10 -42 31 0
32 18 26 0
-25 -54 15 0
35 -34 17 0
4 19 -6 0
3 -18 16 0
-63 70 49 0
-70 21 13 0
-35 55 52 0
55 67 -31 0
33 -60 -57 0
-1 10 -20 0
-30 26 51 0
10 28 38 0
50 -52 69 0
69 -15 21 0
61 -67 11 0
-20 46 63 0
-61 53 -70 0
-17 -53 63 0
63 57 -54 0
-43 12 -27 0
26 -65 7 0
-67 -68 -37 0
41 -5 16 0
-4 20 27 0
-9 64 45 0
66 46 5 0
11 45 -7 0
59 4 -69 0
17 5 -23 0
-48 -17 58 0
-5 -30 31 0
-6 8 29 0
46 50 4 0
38 2 -41 0
-70 -47 6 0
55 51 -37 0
-49 67 -27 0
55 5 -2 0
-52 24 -17 0
22 -5 59 0
-53 -67 19 0
56 46 67 0
-65 -15 -34 0
61 -34 41 0
-69 62 -27 0
3 -69 -17 0
-30 -54 5 0
-42 27 46 0
27 30 35 0
36 6 -39 0
13 40 -53 0
60 44 56 0
-52 -32 -53 0
66 12 36 0
11 22 62 0
56 -35 -59 0
-46 40 -12 0
6 64 -28 0
45 -24 -56 0
61 -6 -70 0
22 -60 9 0
-36 63 60 0
56 26 -61 0
-62 24 -33 0
-1 24 3 0
67 8 -6 0
35 -16 -47 0
68 37 -45 0
-41 -48 -12 0
-58 49 59 0
-3 -20 -60 0
26 -37 22 0
57 46 -34 0
1 60 -46 0
17 36 -38 0
41 66 23 0
63 -25 -31 0
63 58 17 0
-3 -69 22 0
-19 -38 43 0
-37 -41 -36 0
-40 -1 -56 0
-1 -17 -8 0
-5 51 58 0
-61 -41 -28 0
-8 26 -70 0
59 38 -50 0
-15 -70 -50 0
34 24 -65 0
-64 -30 -23 0
-27 41 -68 0
38 8 31 0
20 13 52 0
-7 46 66 0
-1 6 -8 0
35 -24 48 0
-41 21 -58 0
29 18 69 0
48 27 14 0
-15 -23 -55 0
-10 36 32 0
-40 -33 1 0
51 8 27 0
-42 6 -46 0
60 56 41 0
55 -18 -47 0
32 50 16 0
53 30 -51 0
-7 -49 -47 0
8 -67 52 0
69 -63 34 0
-68 -23 32 0
-13 -2 53 0
59 -34 39 0
30 -59 -13 0
-17 52 -6 0
-25 33 47 0
1 55 -6 0
4 69 45 0
-38 -21 -69 0
-57 51 -46 0
61 21 -37 0
62 -58 19 0
-14 -1 37 0
-29 8 40 0
31 48 -19 0
-44 -4 -17 0
37 47 -1 0
27 -31 43 0
-22 31 16 0
18 16 58 0
25 -68 67 0
-66 -52 18 0
42 12 43 0
-69 16 57 0
-45 -13 57 0
-15 -45 -6 0
49 -68 -26 0
45 -17 56 0
-51 45 -28 0
68 18 -10 0
-33 -30 63 0
-8 -70 15 0
41 27 36 0
30 -13 25 0
-65 51 -57 0
32 43 -45 0
69 -46 14 0
3 -69 8 0
-17 23 9 0
-7 -14 38 0
40 30 38 0
56 -49 -18 0
46 -40 -30 0
-21 52 49 0
-14 53 -15 0
-3 55 -26 0
-10 -7 -41 0
-22 27 58 0
-29 28 -57 0
-35 -26 -56 0
-60 56 -19 0
-34 45 -19 0
-66 15 -69 0
-9 -49 -26 0
-44 -2 23 0
48 -33 -5 0
-5 -16 -64 0
68 57 -49 0
38 51 -52 0
21 -64 49 0
-38 5 46 0
13 -53 64 0
10 57 -52 0
-55 -38 56 0
-23 -45 -65 0
17 -33 29 0
-36 -20 53 0
-70 -6 65 0
-37 -26 15 0
-16 -5 -55 0
-36 5 -20 0
65 -55 59 0
-18 -26 27 0
60 -11 44 0
-70 27 -58 0
-28 20 -50 0
-55 34 -67 0
-42 -11 9 0
13 6 23 0
-12 -61 21 0
-43 -70 53 0
43 -5 4 0
12 21 -30 0
19 21 -33 0
52 -65 30 0
20 28 34 0
-3 -10 33 0
-37 -15 -18 0
39 -18 -4 0
-5 63 -62 0
-4 -61 -31 0
32 61 6 0
-60 -69 -53 0
33 31 22 0
-56 -46 -26 0
27 62 40 0
-12 -4 27 0
66 24 69 0
-20 68 -48 0
-52 45 -64 0
50 -60 51 0
-13 -47 -43 0
-28 -60 53 0
-33 62 -28 0
-6 66 -65 0
51 -48 -7 0
-2 -4 20 0
41 -59 70 0
-65 -57 8 0
-70 48 68 0
68 27 -29 0
-26 15 14 0
12 19 65 0
-51 7 37 0
-8 10 -56 0
-56 33 39 0
6 -70 -64 0
-28 -18 63 0
43 56 -9 0
-7 -34 -5 0
-48 13 -12 0
-37 48 -16 0
-32 19 -2 0
60 44 -57 0
-27 35 16 0
48 42 -31 0
-5 23 55 0
-33 16 34 0
13 70 -64 0
13 48 53 0
-48 19 -8 0
44 30 -10 0
53 -29 -69 0
48 30 -43 0
33 -32 40 0
-52 -43 -44 0
36 -65 28 0
-55 44 -70 0
49 3 -1 0
31 32 36 0
38 25 13 0
2 65 -9 0
43 46 -1 0
42 38 63 0
-64 -60 -35 0
52 6 -33 0
3 -9 -53 0
30 65 25 0
-53 21 39 0
4 -12 -28 0
50 41 -27 0
-53 44 -50 0
49 66 1 0
-12 -48 27 0
