p cnf 70 280
1 12 -60 0
-27 32 30 0
39 -6 45 0
8 -55 16 0
14 -3 -10 0
57 -17 36 0
31 69 56 0
-21 -47 -64 0
56 -59 -41 0
8 -3 -5 0
-59 14 -70 0
-48 -50 -28 0
-4 12 -40 0
62 -31 52 0
-37 -67 -27 0
-48 54 -10 0
-17 -47 8 0
64 -28 37 0
66 -48 -22 0
-4 -31 66 0
-57 47 37 0
38 17 34 0
60 -14 44 0
37 41 49 0
2 28 40 0
39 -49 67 0
-32 -41 -9 0
-1 47 34 0
-19 -68 -69 0
-37 64 10 0
14 -27 24 0
-38 -10 23 0
51 -24 -33 0
-1 -27 46 0
52 -7 -37 0
-26 68 -16 0
-4 -43 -14 0
42 24 -9 0
-63 32 21 0
57 -53 50 0
-38 -21 -1 0
-22 62 -27 0
-2 44 -38 0
-32 -27 -4 0
-31 26 66 0
-19 -53 64 0
50 -17 61 0
55 29 -48 0
-58 10 -1 0
-66 16 50 0
58 -33 15 0
6 53 28 0
24 -14 -5 0
-28 5 8 0
60 -26 44 0
8 58 -70 0
10 54 12 0
-38 5 25 0
-39 -56 -59 0
8 -33 -53 0
-59 18 -54 0
-60 -52 17 0
2 -57 -12 0
6 4 39 0
-33 -49 -53 0
-17 61 -6 0
64 -3 -54 0
-35 -37 -27 0
19 -36 -1 0
-59 -27 65 0
40 -18 32 0
-64 5 62 0
49 6 -9 0
-53 -28 -59 0
12 62 60 0
-63 2 -28 0
35 -36 14 0
7 5 -46 0
66 -12 -59 0
-50 -43 -34 0
-9 5 -27 0
51 -70 38 0
-66 9 50 0
45 -5 -4 0
60 -38 -32 0
-29 -3 -50 0
-61 52 -36 0
31 -44 50 0
60 -70 -44 0
-57 -39 46 0
-47 -33 53 0
-38 3 10 0
-45 -57 13 0
-40 -3 52 0
-35 -38 61 0
54 -53 36 0
-37 -41 36 0
17 -28 9 0
-17 26 59 0
36 -61 18 0
20 5 -31 0
9 -62 -68 0
54 70 61 0
-6 -20 42 0
18 53 25 0
63 12 -69 0
-52 59 39 0
-42 67 -13 0
21 -67 -25 0
-21 -32 24 0
29 8 37 0
-21 32 -37 0
-14 25 5 0
-36 -21 68 0
-14 53 -58 0
18 -7 43 0
-36 -66 -41 0
10 -57 51 0
-42 6 -53 0
-57 40 -61 0
31 -2 -32 0
37 -57 7 0
-44 12 -19 0
-52 -28 -13 0
47 12 -55 0
-52 -42 61 0
-24 14 48 0
15 27 38 0
16 61 -47 0
30 -21 -59 0
47 58 -57 0
-15 -62 16 0
-4 -46 22 0
-67 -31 -24 0
33 5 49 0
-5 -17 16 0
35 59 -17 0
-26 55 31 0
28 -16 -37 0
41 -28 15 0
57 24 -66 0
15 18 49 0
-5 -51 6 0
-61 -52 8 0
-5 -58 4 0
-13 -40 69 0
-55 31 -46 0
-69 58 39 0
55 -47 53 0
-63 30 4 0
-8 -61 31 0
-14 -9 -65 0
-32 -23 26 0
-59 -2 -54 0
32 56 -66 0
49 -56 -68 0
-47 68 -66 0
66 -9 -24 0
-11 41 7 0
-2 34 7 0
24 25 61 0
70 -7 59 0
-38 50 45 0
23 44 -20 0
23 -19 31 0
26 34 -52 0
-29 -61 -14 0
-64 -1 34 0
-29 -28 -4 0
13 -36 9 0
-66 -31 -19 0
52 -55 3 0
36 44 21 0
51 -58 57 0
-55 -46 19 0
-14 21 5 0
16 56 -50 0
-63 2 -50 0
-16 58 -25 0
37 62 -3 0
-23 22 -7 0
-30 -21 -63 0
6 14 56 0
51 3 13 0
-1 37 -59 0
-67 -45 -57 0
36 26 51 0
49 29 -4 0
70 29 -61 0
-3 -12 26 0
29 44 -4 0
-27 -11 -26 0
39 -67 51 0
-67 47 9 0
50 -4 9 0
-68 -1 46 0
4 -56 46 0
-36 -17 -5 0
56 24 -50 0
61 -63 -58 0
-17 -30 -59 0
55 -68 -46 0
-53 -10 14 0
-26 20 55 0
65 -58 53 0
-4 -19 6 0
6 -32 25 0
-32 -40 -24 0
57 61 9 0
41 -64 -13 0
-49 -66 -10 0
39 -23 4 0
17 -37 -31 0
-50 18 57 0
2 -28 52 0
-3 -43 4 0
-50 30 -11 0
46 -14 44 0
67 34 30 0
18 -25 7 0
62 50 69 0
-32 21 53 0
53 62 -25 0
-32 -30 -38 0
-60 39 37 0
-18 23 52 0
11 -12 -62 0
19 20 55 0
-16 59 -13 0
-58 -43 12 0
-20 56 -19 0
-8 -28 -25 0
-46 -21 8 0
56 -42 -35 0
-11 -40 49 0
60 62 68 0
18 -42 -39 0
-20 8 26 0
68 -31 -5 0
-34 -62 41 0
-26 9 39 0
-70 -8 5 0
-31 -39 -45 0
-51 15 25 0
-39 -1 -56 0
30 43 65 0
25 -27 -30 0
-46 -2 29 0
33 -1 -66 0
-35 10 -56 0
36 -20 -28 0
-8 57 33 0
-57 27 1 0
40 20 -38 0
-43 23 -2 0
65 54 -52 0
-38 56 27 0
-67 21 17 0
42 65 -56 0
-38 -15 14 0
27 -9 23 0
-41 -12 69 0
-43 9 11 0
45 -16 -51 0
17 -66 -35 0
42 -5 27 0
6 40 70 0
54 -27 -19 0
-4 47 -59 0
-51 47 23 0
66 -37 -47 0
-42 -18 -44 0
-52 31 -67 0
-17 -39 19 0
54 -13 12 0
-13 28 60 0
-10 26 -42 0
28 -63 15 0
27 -3 -11 0
62 -16 68 0
