p cnf 70 305
45 35 -15 0
21 22 62 0
-39 -15 19 0
13 52 10 0
-36 -5 51 0
24 51 65 0
28 -33 67 0
18 20 45 0
38 -12 -48 0
28 -62 -5 0
-55 59 49 0
-4 -68 -58 0
-65 66 -49 0
-11 -35 55 0
49 5 50 0
-33 -18 -60 0
-46 -69 -52 0
-49 17 -15 0
35 -58 46 0
-56 -17 -53 0
6 -69 -32 0
32 -58 -43 0
29 68 52 0
-20 49 -45 0
31 14 18 0
62 -36 -37 0
58 5 62 0
-12 33 -63 0
-14 65 -26 0
6 28 -61 0
9 -54 -59 0
57 -14 32 0
-51 29 36 0
-57 35 32 0
-20 19 -34 0
-17 -34 -7 0
-56 -62 13 0
68 66 -45 0
70 11 -47 0
-28 -53 -67 0
57 52 60 0
-61 -33 -60 0
-19 -2 -17 0
34 55 -32 0
15 -4 -22 0
-51 54 11 0
13 37 -27 0
-22 58 -53 0
14 45 46 0
61 8 -2 0
63 -6 51 0
24 9 -63 0
-61 -65 32 0
-59 -25 1 0
52 -27 2 0
66 63 -43 0
-68 -62 8 0
-33 41 -44 0
-9 -62 -10 0
70 -44 -67 0
44 -50 -40 0
-14 -5 6 0
-57 -37 64 0
31 -43 4 0
25 20 51 0
-49 68 57 0
5 -27 9 0
49 62 36 0
68 -8 22 0
47 68 -2 0
45 -17 -16 0
48 67 -35 0
22 67 9 0
-19 -45 4 0
-52 -65 55 0
-19 29 -1 0
53 -46 -38 0
3 -33 -21 0
58 -25 70 0
-18 10 -42 0
55 -50 -30 0
32 -29 12 0
56 48 58 0
39 12 -14 0
54 -60 22 0
-16 48 -46 0
61 56 -40 0
-52 -14 42 0
-28 6 -40 0
-65 26 64 0
44 -34 52 0
39 4 -5 0
11 48 43 0
-16 -12 -26 0
-6 -16 -13 0
-61 -19 62 0
-29 -22 46 0
6 1 -44 0
-52 27 -28 0
19 28 32 0
-39 61 -18 0
-16 -15 -49 0
50 -20 61 0
-44 -8 3 0
-17 -35 -55 0
28 17 33 0
-52 -62 57 0
39 -6 25 0
-28 -46 -7 0
14 -52 -58 0
56 -50 48 0
-68 57 56 0
64 -67 17 0
-54 49 -3 0
59 2 -13 0
-41 -22 7 0
28 -9 61 0
-29 30 62 0
70 41 3 0
31 22 19 0
21 -61 -24 0
-29 45 -67 0
-69 -43 -44 0
19 -52 -47 0
22 59 29 0
-67 2 44 0
-68 -61 64 0
-22 21 -58 0
44 17 65 0
-23 70 38 0
-44 42 -13 0
-62 -17 25 0
24 -58 19 0
-49 -38 67 0
-25 1 34 0
11 -17 -4 0
36 40 52 0
20 -29 40 0
-17 34 13 0
-68 23 48 0
-30 22 -29 0
-49 27 -50 0
-47 -69 -7 0
35 55 -22 0
21 66 35 0
49 -8 -50 0
1 8 46 0
-53 -27 16 0
-18 31 -50 0
-19 -4 -54 0
-19 6 -2 0
-26 -14 5 0
54 39 -37 0
55 -31 -7 0
-63 26 37 0
59 -15 -52 0
29 -35 -20 0
48 28 -49 0
10 4 33 0
-45 -62 -42 0
-18 -10 -6 0
-70 18 -28 0
29 4 -53 0
37 13 -50 0
62 54 -57 0
-39 44 55 0
-39 -14 -32 0
37 43 -46 0
-53 -10 6 0
-19 -26 60 0
52 26 33 0
-67 -21 -68 0
-31 14 -69 0
62 15 30 0
-69 3 -36 0
-58 -8 -59 0
-37 -39 38 0
-7 -11 -68 0
-23 -43 -66 0
-19 -41 -10 0
16 15 11 0
55 46 -23 0
7 -3 -12 0
12 31 39 0
-70 4 -17 0
14 35 20 0
-9 -8 54 0
-42 60 -32 0
31 23 49 0
-69 5 -47 0
-63 -32 16 0
52 -61 -60 0
-41 17 66 0
-61 48 -33 0
-25 29 -69 0
39 -11 65 0
-1 15 53 0
-8 20 -18 0
-44 56 41 0
69 -27 -3 0
51 44 45 0
-60 30 -23 0
42 -49 30 0
20 19 -34 0
59 20 46 0
60 -29 -23 0
63 -45 -39 0
2 -58 18 0
-49 68 52 0
50 -26 39 0
1 58 8 0
-56 -25 7 0
46 35 -26 0
-30 -12 -1 0
-8 23 -29 0
-28 48 44 0
-66 53 67 0
23 30 14 0
-19 -61 -38 0
-44 17 -42 0
-34 35 16 0
18 1 24 0
7 -24 -52 0
-32 57 -1 0
-64 51 60 0
23 -29 -9 0
-27 21 -12 0
43 11 48 0
53 15 37 0
-37 -4 62 0
52 24 39 0
49 34 65 0
25 -3 -33 0
-36 -19 60 0
31 64 59 0
-53 30 33 0
43 63 59 0
61 -17 14 0
38 50 68 0
30 65 -43 0
5 -27 6 0
21 23 -42 0
-66 17 24 0
-70 64 -34 0
-55 -70 -23 0
-64 -18 -67 0
-51 12 -18 0
36 42 25 0
-7 -29 -59 0
40 -59 68 0
13 7 -32 0
26 23 22 0
-52 38 -16 0
-21 7 64 0
5 -31 59 0
-1 46 35 0
49 12 -32 0
-31 1 -50 0
-41 -54 -46 0
-28 13 17 0
12 32 -51 0
-52 67 4 0
60 70 -27 0
-65 4 -54 0
47 -5 10 0
31 44 29 0
-46 66 47 0
66 35 -16 0
20 -65 46 0
3 65 -64 0
-32 -8 11 0
29 -39 -49 0
27 19 65 0
-18 -11 56 0
13 -62 15 0
61 66 64 0
-30 -46 39 0
55 -24 -45 0
31 3 42 0
68 -67 63 0
58 -53 9 0
20 -68 50 0
39 12 -24 0
58 -2 -31 0
-3 23 2 0
-28 -49 7 0
-52 26 5 0
65 -37 -33 0
29 -21 28 0
69 -22 50 0
-40 -28 38 0
-41 -23 20 0
-33 12 7 0
8 -70 25 0
29 -35 -18 0
-31 -54 49 0
-9 59 -47 0
-13 -11 -44 0
35 -16 -55 0
56 -4 -44 0
65 -9 41 0
51 -48 4 0
68 20 -56 0
18 52 -20 0
63 26 -53 0
