p cnf 70 260
-58 43 62 0
27 8 -38 0
47 -33 -7 0
25 -44 -57 0
-42 -20 3 0
59 16 6 0
-67 -24 -60 0
14 35 -6 0
-58 -55 64 0
13 -44 59 0
27 63 19 0
34 27 14 0
-63 -27 -39 0
-55 -24 -30 0
40 59 46 0
-5 54 51 0
38 -4 30 0
-25 50 48 0
-26 1 50 0
-35 -60 -3 0
65 3 11 0
-68 -24 59 0
-17 -6 33 0
-34 -40 6 0
11 -34 44 0
19 58 44 0
2 37 -1 0
-32 -25 -44 0
60 15 62 0
16 -12 9 0
-66 52 -12 0
47 28 35 0
-52 30 58 0
-58 54 59 0
-24 -1 11 0
-69 -55 11 0
-31 -32 -2 0
29 -42 61 0
47 -51 -14 0
-31 -27 -60 0
-42 27 -67 0
-32 35 52 0
20 37 61 0
-56 12 -39 0
-27 -39 66 0
5 -48 14 0
39 -69 -13 0
64 -57 60 0
-6 3 9 0
39 -26 -44 0
-50 -62 27 0
22 -12 -66 0
-10 -66 17 0
-16 -30 28 0
-58 -30 -37 0
-41 -28 61 0
50 -35 1 0
64 -62 27 0
22 50 12 0
36 55 -49 0
28 -9 -21 0
-26 -1 -68 0
33 44 58 0
-25 -29 10 0
19 67 -56 0
66 -64 -42 0
-35 -49 -33 0
64 69 13 0
41 6 64 0
15 63 -46 0
30 69 -46 0
-16 41 -40 0
-26 67 63 0
-32 53 43 0
34 -11 -60 0
33 65 38 0
32 17 3 0
8 -68 2 0
-67 -54 39 0
8 22 -41 0
35 9 23 0
-41 50 -39 0
63 25 -9 0
-14 55 11 0
-65 -33 37 0
-11 20 -2 0
-65 26 -24 0
-64 65 32 0
14 15 57 0
-43 26 -20 0
51 13 -20 0
53 -41 -22 0
-70 -56 -31 0
9 -17 15 0
52 -65 27 0
38 -47 -13 0
33 12 -39 0
-32 17 -70 0
60 -55 -6 0
62 5 13 0
-62 6 18 0
7 -19 -27 0
18 -70 10 0
-64 -28 -44 0
46 57 27 0
24 58 -2 0
-49 -20 65 0
4 -12 17 0
-49 51 -70 0
-49 26 -61 0
-48 53 -56 0
-13 23 -43 0
50 -9 -69 0
2 70 -24 0
-8 -47 48 0
-23 1 -58 0
-13 -57 11 0
52 -19 -2 0
4 15 -17 0
68 -59 2 0
23 10 -13 0
24 9 -7 0
48 23 -52 0
-65 -36 29 0
-42 16 9 0
26 31 -49 0
-70 36 -11 0
-54 -11 1 0
-2 -10 -68 0
27 55 -33 0
11 -66 60 0
6 15 14 0
42 -11 -58 0
-57 5 64 0
-26 15 -25 0
-45 -52 -35 0
-21 -41 66 0
-58 61 -66 0
-47 -3 41 0
6 65 -5 0
-12 18 -19 0
-30 -58 62 0
3 -66 68 0
-8 -6 -7 0
-25 46 33 0
-66 7 9 0
8 6 -31 0
26 -61 -39 0
-24 -59 -40 0
-22 63 40 0
-21 59 -62 0
19 61 -39 0
-11 25 -39 0
-37 -7 4 0
-14 22 63 0
44 47 65 0
-42 -3 21 0
16 37 -24 0
-69 6 -59 0
-69 22 56 0
-39 -30 -11 0
16 49 63 0
-70 -56 54 0
43 -28 50 0
70 -35 27 0
28 55 20 0
24 39 17 0
-48 -6 53 0
-2 39 -15 0
33 -35 45 0
-36 -43 -56 0
-57 -13 22 0
33 32 -57 0
-6 12 70 0
33 4 34 0
31 -2 -21 0
-12 -21 -26 0
-37 -7 4 0
13 -31 26 0
-16 -36 -64 0
63 46 5 0
-64 20 65 0
-40 2 -30 0
13 16 26 0
-50 -8 -23 0
25 33 -35 0
-61 -51 48 0
-30 -7 24 0
-41 30 62 0
19 -53 25 0
16 22 69 0
35 -9 -69 0
-22 26 -55 0
-31 -68 24 0
-8 -21 -51 0
54 67 68 0
2 3 48 0
-32 -8 41 0
-4 -55 -21 0
14 48 -46 0
66 4 -53 0
-22 -16 -14 0
47 61 25 0
-14 63 -69 0
25 -44 -54 0
3 12 64 0
-57 -43 -63 0
-45 -16 43 0
61 -40 -67 0
-3 34 -4 0
50 5 59 0
-24 59 -70 0
-8 15 43 0
-19 -31 13 0
-61 67 6 0
51 -24 -15 0
9 50 -39 0
-7 29 11 0
-21 -70 -41 0
-40 67 8 0
-41 13 -28 0
22 -61 -12 0
-26 62 9 0
60 50 -32 0
-38 11 -24 0
-47 57 -17 0
46 10 58 0
-51 -14 -13 0
-66 -56 62 0
-60 -24 20 0
49 -18 42 0
67 -15 52 0
-24 46 -60 0
-62 -1 -2 0
-62 43 21 0
-57 10 -32 0
21 -35 -62 0
-4 62 48 0
-2 31 -10 0
-46 66 57 0
-42 -41 -9 0
15 46 -19 0
15 -8 32 0
64 56 -69 0
-40 -53 -35 0
47 4 14 0
-42 6 -19 0
42 58 29 0
-26 -49 -23 0
-69 -58 -16 0
-33 -67 -46 0
48 -20 -52 0
50 -57 47 0
61 50 57 0
17 33 62 0
-46 11 49 0
69 19 58 0
-33 52 17 0
69 7 20 0
21 -25 27 0
