p cnf 70 305
-64 35 28 0
-22 -67 -12 0
3 -40 -39 0
-28 43 -54 0
42 50 -13 0
31 -10 -9 0
41 9 -20 0
-25 -19 10 0
-9 -48 12 0
-46 44 56 0
20 23 -2 0
56 -23 52 0
-61 -4 -8 0
37 -38 -24 0
-53 5 -19 0
-32 66 -65 0
50 -63 57 0
-11 20 -15 0
-22 21 -1 0
35 45 30 0
5 -21 12 0
-58 -61 27 0
29 35 12 0
43 39 18 0
70 -25 1 0
49 -59 -42 0
70 68 -62 0
58 -43 -67 0
20 35 31 0
-63 -22 -39 0
-19 60 52 0
-9 29 58 0
-18 -45 58 0
22 -15 -25 0
-35 48 25 0
-53 -16 66 0
-37 55 9 0
-33 -53 26 0
-65 -61 60 0
56 -70 -9 0
-23 54 36 0
6 40 -30 0
28 41 -47 0
-28 39 -54 0
-8 70 -66 0
-12 -7 59 0
47 -48 39 0
-2 43 -7 0
17 -24 -30 0
-65 42 66 0
-50 56 -7 0
-30 -29 -22 0
-54 -44 -48 0
39 53 30 0
60 7 45 0
60 45 44 0
-11 26 34 0
70 14 64 0
61 -20 -59 0
-44 -40 -17 0
31 16 60 0
10 -1 69 0
56 -26 34 0
10 -34 12 0
-57 58 6 0
56 49 -46 0
-17 -69 6 0
54 53 21 0
5 -60 26 0
53 -21 25 0
-49 51 -67 0
-51 28 -70 0
66 -63 4 0
-24 30 -16 0
-38 -64 60 0
-46 -50 66 0
-23 -50 -60 0
-12 56 -27 0
-21 -38 -1 0
11 33 22 0
-37 -10 51 0
-68 -13 -42 0
-5 45 -29 0
28 -57 -23 0
-68 -2 58 0
51 -37 -61 0
-24 -16 -29 0
-70 26 40 0
52 36 10 0
-50 -16 58 0
66 -46 55 0
68 21 47 0
60 55 -56 0
-4 47 21 0
-17 23 38 0
64 65 -50 0
-58 -51 -27 0
-5 -9 -52 0
-22 49 28 0
-38 -66 -46 0
-24 66 23 0
-53 15 -16 0
-35 19 65 0
46 41 -49 0
43 23 -30 0
60 17 11 0
-65 -43 -3 0
66 38 23 0
22 -16 -19 0
-29 13 -40 0
40 -57 24 0
-55 -30 24 0
57 28 -10 0
46 30 24 0
56 -32 47 0
-10 -61 -54 0
45 36 39 0
51 17 -33 0
46 3 -25 0
-25 -45 -2 0
-35 4 -61 0
45 25 -52 0
-50 -62 36 0
34 -68 -59 0
-59 -66 39 0
-27 -59 43 0
53 -44 -35 0
10 6 -15 0
-70 69 29 0
63 -5 46 0
39 -50 59 0
-64 18 53 0
-49 20 -54 0
58 -60 -30 0
-7 69 -31 0
-60 21 -31 0
-59 45 4 0
46 31 -23 0
-19 -40 -11 0
-42 -63 -57 0
55 37 28 0
23 -15 -62 0
6 41 -52 0
46 -52 -27 0
-51 -42 11 0
-32 -67 -69 0
45 -54 -36 0
9 46 18 0
-30 -66 -14 0
27 61 31 0
66 -18 -29 0
57 -5 -26 0
67 -56 -25 0
50 -21 -9 0
-23 66 -11 0
-47 -57 51 0
-11 67 23 0
-26 -37 64 0
-45 49 39 0
17 27 -24 0
15 46 58 0
55 -13 43 0
22 26 -39 0
64 51 -68 0
-24 11 25 0
-28 70 -69 0
59 -24 -11 0
35 42 3 0
50 -41 6 0
-32 -6 33 0
-60 -1 -44 0
-17 -59 27 0
65 -69 23 0
9 12 -7 0
60 10 -8 0
28 53 64 0
42 70 65 0
19 -41 37 0
-39 28 -25 0
19 -68 52 0
-10 46 -6 0
36 6 24 0
-69 42 -27 0
33 70 -54 0
6 -59 -69 0
52 -42 -55 0
-14 23 34 0
-15 2 -56 0
-34 44 55 0
39 68 -32 0
-18 -7 -69 0
-34 9 -60 0
60 64 -3 0
24 -3 -10 0
36 42 58 0
49 -6 68 0
-29 9 44 0
14 -47 69 0
43 17 29 0
20 -32 23 0
-23 11 -24 0
-65 -40 -32 0
-48 27 12 0
-33 69 54 0
66 -67 -70 0
29 -56 49 0
-20 -15 70 0
-11 -18 -16 0
-57 -59 -28 0
59 -7 27 0
-27 14 6 0
-40 -6 1 0
64 29 -61 0
-23 61 21 0
39 27 -16 0
22 -65 -10 0
-31 6 -13 0
34 37 63 0
-7 -67 -49 0
49 -50 29 0
43 14 54 0
-36 42 67 0
-14 29 -11 0
-42 -37 6 0
19 -10 -33 0
59 -53 -16 0
-32 17 -31 0
-35 15 -11 0
-3 -27 43 0
46 49 -54 0
59 22 -68 0
49 1 5 0
7 -61 -17 0
6 -69 -54 0
-20 61 -21 0
-12 28 -52 0
-25 -35 -20 0
-23 -22 -45 0
47 -66 -52 0
9 59 13 0
69 70 27 0
-3 -64 -18 0
51 28 -45 0
11 -33 25 0
41 -22 64 0
-5 38 26 0
-53 -64 25 0
47 -44 2 0
-31 -52 -9 0
-11 66 -7 0
8 -25 -22 0
-4 -64 -27 0
1 62 -16 0
22 32 -47 0
17 -37 -53 0
-25 -13 51 0
12 -40 -1 0
20 -45 -63 0
53 44 49 0
-63 -59 -18 0
13 4 -15 0
-45 -58 31 0
-12 64 57 0
62 63 -43 0
42 -17 -28 0
13 -38 -26 0
-18 62 -42 0
67 -20 -13 0
62 32 -57 0
-21 -23 -56 0
-55 -60 -44 0
29 -35 34 0
3 -13 -50 0
-21 -13 12 0
-13 -52 -68 0
-47 -17 69 0
37 48 70 0
26 -15 18 0
12 -13 -49 0
-14 -61 -44 0
-65 -18 -5 0
12 9 5 0
21 -29 41 0
67 -47 25 0
40 14 -41 0
29 9 -69 0
-37 7 35 0
-6 -16 58 0
38 33 -24 0
36 -48 33 0
4 -23 70 0
48 31 -13 0
-62 50 45 0
37 -40 -67 0
18 -55 -38 0
-1 31 25 0
21 42 -43 0
4 -54 47 0
-11 -19 32 0
-62 -49 -47 0
-49 2 32 0
-16 33 39 0
68 57 -31 0
36 16 20 0
23 34 67 0
