p cnf 70 295
-43 58 19 0
48 -16 38 0
41 29 70 0
-63 -36 -58 0
33 -15 25 0
27 -29 25 0
37 -19 -45 0
35 13 11 0
-69 -6 -64 0
52 67 62 0
-30 8 -25 0
-44 -47 -1 0
16 -33 55 0
11 -62 -37 0
14 68 3 0
32 69 -63 0
64 -1 9 0
-15 -5 -61 0
-43 -46 61 0
-9 -26 -16 0
-62 -32 -30 0
41 -55 51 0
-23 20 41 0
-29 -64 62 0
-10 -20 -53 0
-37 -19 50 0
-18 17 -68 0
-3 7 4 0
-64 -70 -41 0
-49 38 -48 0
-39 -61 -18 0
6 61 49 0
-28 2 34 0
10 58 -61 0
19 11 -7 0
-20 -21 64 0
48 -44 25 0
-34 62 -67 0
42 28 -34 0
-34 -14 -7 0
-62 5 3 0
-68 -17 39 0
-21 55 -67 0
-23 36 53 0
40 54 59 0
-23 -24 -8 0
-19 -39 -62 0
47 53 -65 0
-19 58 1 0
-38 -28 11 0
33 -27 38 0
40 21 53 0
-39 19 43 0
25 -69 41 0
40 -47 39 0
42 66 -25 0
26 54 -46 0
-11 68 -50 0
22 32 -43 0
34 16 -59 0
-26 -47 13 0
-14 60 -44 0
10 -70 69 0
-62 58 32 0
24 -60 70 0
10 54 -36 0
-59 -3 -50 0
44 39 15 0
50 -45 -22 0
47 5 -70 0
-23 46 -17 0
-62 58 -12 0
24 33 -30 0
-68 49 25 0
-21 61 -12 0
14 -24 42 0
6 -56 -57 0
-45 33 -40 0
47 -2 -62 0
2 -9 21 0
67 2 -18 0
64 -24 -28 0
8 45 -52 0
-40 -38 -63 0
-22 -31 3 0
-34 -39 10 0
-32 -13 -28 0
32 -29 3 0
69 -24 -11 0
-38 -64 -21 0
-33 -32 -22 0
-70 3 -18 0
-45 -61 -46 0
-41 21 25 0
32 45 50 0
-45 47 1 0
44 11 59 0
-40 -13 11 0
53 -27 -12 0
-49 59 16 0
-21 60 -70 0
54 -32 25 0
-60 -13 -11 0
51 -63 -40 0
-59 46 12 0
-25 -3 40 0
-51 -50 -14 0
54 21 24 0
-66 -69 -46 0
68 49 55 0
44 -11 -47 0
37 -43 55 0
-34 40 33 0
4 10 -56 0
65 -39 3 0
28 40 -42 0
49 -58 -14 0
43 -55 -68 0
19 -64 68 0
-60 -12 24 0
47 -16 20 0
-16 -44 14 0
1 23 16 0
56 -13 -58 0
4 -5 -58 0
7 55 48 0
54 10 59 0
-16 63 -56 0
-43 2 -68 0
-64 39 31 0
-19 -11 -41 0
59 11 -65 0
-24 26 6 0
59 -13 32 0
-4 29 -50 0
-28 -31 -25 0
-14 61 19 0
22 -14 -60 0
21 -24 -59 0
-1 -29 56 0
21 -43 -38 0
50 57 40 0
-50 -56 -6 0
-70 -65 -59 0
-30 4 45 0
45 -64 15 0
-42 20 -52 0
-59 28 -48 0
16 -40 24 0
-13 40 33 0
-57 -6 12 0
50 -2 33 0
-2 30 50 0
-63 -9 -45 0
59 65 -29 0
-58 -62 14 0
-8 -6 -39 0
-5 -56 42 0
54 -40 43 0
-49 -59 43 0
37 -29 -18 0
53 1 67 0
-28 -6 -52 0
-40 15 -59 0
31 70 -55 0
-52 39 64 0
22 67 57 0
-64 25 10 0
59 -35 -55 0
-1 -24 36 0
-48 46 -38 0
-13 -69 42 0
-5 -36 -4 0
2 -20 -54 0
-21 8 -9 0
64 -30 -6 0
30 -33 -26 0
15 -16 -34 0
45 -21 -51 0
2 7 -1 0
29 38 -61 0
-25 -51 -49 0
45 -31 14 0
-43 54 63 0
-2 26 31 0
-44 52 19 0
40 68 -36 0
24 29 44 0
63 14 -35 0
-29 1 -70 0
-27 37 -68 0
25 60 -55 0
-64 47 -9 0
-58 12 56 0
53 56 -39 0
-34 -47 -5 0
-42 4 17 0
12 27 25 0
58 -42 29 0
-70 -54 -3 0
-2 -21 -44 0
-6 -40 -16 0
25 -14 20 0
-27 61 35 0
-67 52 4 0
39 -68 -12 0
-58 -38 34 0
-51 -1 53 0
29 21 62 0
19 41 -1 0
-30 -68 -4 0
-2 -44 -45 0
-29 -25 -47 0
-40 -20 1 0
20 67 -13 0
-52 62 -33 0
67 -69 -26 0
38 33 -8 0
-44 26 -23 0
-62 49 38 0
-46 47 51 0
15 54 -47 0
-27 -8 50 0
31 -17 -35 0
62 -56 18 0
31 54 65 0
32 14 -55 0
13 -4 -10 0
19 63 -4 0
-35 70 -47 0
-18 31 -56 0
39 -38 -14 0
-18 29 59 0
-48 -67 -25 0
9 23 -24 0
37 -65 -13 0
-24 -19 16 0
9 -43 -48 0
38 -65 -29 0
-47 -26 44 0
6 -59 -54 0
-55 4 -21 0
50 -37 59 0
20 8 -28 0
23 38 -45 0
-1 8 28 0
-29 -40 -20 0
40 -67 49 0
6 36 -57 0
-49 -58 31 0
64 -20 -42 0
-31 -6 -17 0
67 -24 -30 0
-60 -3 -52 0
37 5 20 0
34 -15 61 0
-50 -58 -54 0
24 61 -22 0
68 -33 -11 0
44 35 58 0
55 -9 -39 0
-34 29 -14 0
36 -41 25 0
9 -41 -38 0
20 -16 51 0
-49 -43 53 0
-12 5 -37 0
-43 -23 22 0
49 63 4 0
15 44 -58 0
36 65 -29 0
-41 -30 70 0
57 -24 8 0
41 -13 9 0
24 68 -52 0
-27 5 49 0
34 28 -12 0
-26 61 20 0
27 35 30 0
-23 -5 27 0
-5 60 42 0
-15 -13 50 0
33 29 -35 0
39 -30 50 0
30 -47 -14 0
-33 70 60 0
55 49 -41 0
32 -40 -16 0
-22 19 -46 0
32 -54 11 0
-42 48 -60 0
8 41 -57 0
21 -28 -14 0
70 12 6 0
5 16 56 0
