p cnf 70 270
10 28 -18 0
66 32 -15 0
31 -43 29 0
-24 29 -46 0
55 -44 70 0
-42 58 43 0
54 -49 62 0
14 65 19 0
-68 52 -3 0
-23 47 70 0
32 52 -10 0
-55 -35 25 0
-54 -4 67 0
9 -32 56 0
55 -59 -4 0
-1 48 16 0
50 -31 -2 0
25 54 -3 0
-28 22 -34 0
27 67 -12 0
39 -59 -2 0
-66 -13 -27 0
4 -39 -58 0
-43 62 45 0
-57 32 48 0
-13 65 -60 0
-21 -23 -12 0
55 -49 -40 0
-42 -22 68 0
14 -49 -28 0
41 26 -17 0
-40 -6 -16 0
38 2 60 0
2 50 -34 0
16 60 35 0
55 -68 -19 0
18 60 -26 0
27 35 -39 0
23 -33 -61 0
-28 67 55 0
-69 18 5 0
28 13 49 0
53 -21 41 0
25 51 19 0
2 -22 -62 0
6 -17 21 0
18 52 45 0
64 11 -12 0
-8 38 -43 0
1 39 -43 0
8 -62 -7 0
-54 -5 15 0
47 -67 24 0
27 17 -38 0
-26 4 -40 0
-12 64 53 0
42 -12 -58 0
63 32 69 0
32 9 -42 0
-23 10 -27 0
-44 32 35 0
35 -32 -10 0
15 -11 -13 0
-40 -4 22 0
55 -31 16 0
-57 -62 -54 0
42 -65 -48 0
54 48 1 0
-37 49 -2 0
-56 -32 43 0
-52 49 -37 0
-43 17 44 0
18 46 20 0
31 -30 -23 0
46 61 -22 0
64 -18 -22 0
16 4 -69 0
15 47 17 0
34 18 -25 0
-26 64 -12 0
-15 -67 44 0
-60 -62 -57 0
19 41 -27 0
-6 57 -44 0
-34 25 29 0
44 21 65 0
56 -22 -39 0
-23 -22 44 0
-28 9 -57 0
32 -24 -2 0
-62 15 1 0
-48 -64 -43 0
-34 11 -32 0
-50 -13 39 0
5 19 23 0
-69 39 13 0
-15 55 59 0
31 44 40 0
42 -59 2 0
-70 -55 45 0
22 -63 -7 0
-32 29 47 0
-50 65 28 0
21 8 -50 0
-45 -55 56 0
-37 13 25 0
-15 -62 12 0
-44 -55 -61 0
15 67 -11 0
35 64 -20 0
14 -24 -4 0
-66 -37 32 0
-22 66 -12 0
15 -20 34 0
60 58 -5 0
19 -35 -1 0
70 28 -54 0
-18 7 52 0
-19 43 42 0
-52 -64 -39 0
25 66 -46 0
36 -48 16 0
7 25 -68 0
-21 13 -60 0
14 -49 65 0
-33 -21 1 0
16 58 -39 0
61 -40 -53 0
-51 58 66 0
-32 -53 -44 0
-41 57 -48 0
70 30 -48 0
2 65 -11 0
29 49 -36 0
-42 -26 59 0
-46 61 -32 0
-57 32 -2 0
-69 -47 -14 0
-35 61 -68 0
13 1 42 0
-19 -43 -55 0
-70 -67 -43 0
-33 -62 -65 0
-52 37 -27 0
19 28 -30 0
43 -15 10 0
-25 -50 -18 0
-50 -32 47 0
2 -6 21 0
-19 -68 3 0
-52 46 -47 0
49 -33 -12 0
-38 4 -13 0
44 33 -36 0
61 57 70 0
-62 33 -53 0
22 -41 -57 0
-12 70 11 0
4 49 59 0
33 32 62 0
10 -52 -54 0
-50 -65 -18 0
20 -42 -65 0
38 -27 47 0
24 -67 -62 0
-17 31 -62 0
-54 2 -45 0
25 17 -15 0
20 -3 -43 0
-8 -17 25 0
31 -33 54 0
35 48 3 0
-60 -58 -20 0
23 43 -36 0
3 -35 -46 0
-28 -55 -2 0
-11 -45 -59 0
36 -14 37 0
63 69 -47 0
-47 -50 -38 0
-30 20 -67 0
6 60 -32 0
-70 -17 -31 0
-56 -17 1 0
-4 1 -30 0
55 -60 -47 0
-31 10 -25 0
-58 13 -17 0
-57 54 -59 0
-7 15 9 0
38 -39 17 0
-47 -24 37 0
-65 52 -35 0
-3 47 18 0
-2 27 13 0
-4 -46 12 0
51 36 -67 0
46 66 3 0
46 15 -17 0
45 -59 -66 0
44 49 40 0
30 -18 52 0
-8 32 -59 0
-65 -67 -51 0
57 -33 -3 0
15 64 55 0
-16 67 -47 0
9 -17 18 0
-13 25 55 0
-67 -57 -59 0
66 18 56 0
61 57 -35 0
18 5 -52 0
8 18 57 0
-22 31 26 0
3 31 -69 0
41 24 19 0
-65 -2 24 0
-63 -1 60 0
-16 45 68 0
-1 -13 49 0
-59 70 17 0
7 21 41 0
3 -38 -61 0
-52 43 9 0
-4 7 33 0
7 -17 6 0
26 -58 4 0
-34 30 35 0
3 -54 15 0
4 -10 19 0
25 -9 69 0
-46 16 17 0
-16 -1 -33 0
-21 10 -11 0
52 57 -34 0
-3 23 -12 0
70 66 29 0
51 -38 -7 0
-33 62 40 0
16 37 31 0
42 -35 10 0
-3 -53 21 0
-34 -24 -59 0
10 -47 40 0
-1 -41 -64 0
41 -25 -19 0
-25 -57 -44 0
8 -16 66 0
62 11 57 0
-35 4 -32 0
-50 17 -14 0
-15 -31 -50 0
-11 -5 -32 0
55 -46 -65 0
-22 58 -14 0
51 -21 -61 0
54 66 60 0
66 -48 -23 0
-67 -35 8 0
25 -61 -64 0
59 -60 63 0
-49 -39 -48 0
5 54 42 0
48 -29 44 0
-20 15 -21 0
-30 -49 46 0
-50 -14 5 0
-40 -13 67 0
8 48 51 0
