p cnf 70 265
50 -27 58 0
-3 19 -37 0
4 63 -7 0
-61 -41 20 0
-11 -18 -17 0
15 3 8 0
-10 35 63 0
60 -69 -68 0
38 33 -12 0
44 -1 -54 0
-56 -3 -58 0
-51 8 -70 0
-52 -39 -38 0
-22 -66 50 0
-30 57 -37 0
-55 -29 66 0
-53 33 47 0
64 -51 -1 0
-46 -52 35 0
-3 -47 -55 0
-35 15 -43 0
65 -20 -66 0
47 -31 32 0
2 24 60 0
70 -28 -32 0
-34 -6 -61 0
35 10 2 0
10 41 65 0
-52 -59 30 0
-48 -68 -67 0
-63 -19 65 0
-64 -57 -2 0
36 64 9 0
-44 3 47 0
-19 -9 -37 0
13 23 68 0
-41 63 -2 0
43 -48 54 0
69 -16 23 0
-18 29 -39 0
-40 -10 -33 0
-15 -29 34 0
17 -30 7 0
59 10 -30 0
14 57 34 0
16 15 -22 0
-35 66 25 0
24 -68 53 0
25 30 -29 0
62 25 63 0
7 -53 -65 0
33 -25 -64 0
40 22 -41 0
18 17 24 0
34 -39 63 0
-42 -22 -25 0
11 28 -37 0
69 -10 -40 0
65 30 -64 0
-8 -46 11 0
-9 63 55 0
57 4 69 0
66 16 25 0
-38 -47 60 0
-42 27 19 0
38 -14 53 0
45 15 -5 0
8 59 23 0
-31 -20 -48 0
-22 16 57 0
-68 2 37 0
-22 -14 54 0
33 48 -16 0
8 -21 58 0
64 2 -51 0
-38 20 8 0
37 61 -55 0
-69 35 61 0
-14 -56 67 0
47 49 58 0
-1 -19 54 0
67 -28 63 0
-3 68 37 0
-11 56 -1 0
-29 -63 -41 0
-27 2 -69 0
28 31 -67 0
70 -9 27 0
-36 -46 23 0
-31 55 -10 0
38 54 -26 0
-64 -55 13 0
-36 25 -46 0
-3 -37 -27 0
-7 27 -59 0
24 43 34 0
43 61 17 0
16 52 30 0
-61 -45 -31 0
64 29 -16 0
-17 7 13 0
26 -38 16 0
3 24 40 0
18 55 -17 0
21 -62 -69 0
24 -16 -28 0
-66 -54 46 0
-31 37 33 0
-54 -58 17 0
70 26 20 0
9 -24 4 0
13 -63 3 0
11 42 -64 0
24 57 -13 0
55 -38 -8 0
38 14 -44 0
13 46 3 0
57 38 -17 0
70 -6 -64 0
22 -28 18 0
27 3 18 0
-58 38 50 0
29 -6 60 0
-21 -20 -46 0
-11 21 65 0
17 14 37 0
4 62 -27 0
39 33 -31 0
63 21 -6 0
62 34 47 0
60 32 58 0
14 17 13 0
-10 -40 28 0
62 35 69 0
56 4 22 0
62 -15 53 0
27 43 67 0
-34 17 -12 0
-68 53 43 0
40 48 -41 0
54 27 69 0
41 -2 6 0
35 -44 15 0
-17 61 31 0
-22 -10 -23 0
-64 26 24 0
31 -69 4 0
25 45 6 0
-18 -27 -14 0
-8 41 66 0
47 62 10 0
31 46 -7 0
-23 35 -19 0
42 53 -41 0
-3 -21 -46 0
45 -6 -35 0
-43 -67 -52 0
-67 -53 -41 0
51 -25 11 0
-27 44 -65 0
-17 -24 60 0
-24 -51 -8 0
13 34 23 0
-27 69 34 0
60 -38 -15 0
65 69 -57 0
-44 26 -61 0
44 14 -8 0
-2 57 -19 0
-17 -2 -5 0
19 -16 13 0
-56 -11 10 0
21 -46 17 0
52 -63 4 0
28 -66 -30 0
-10 40 30 0
-21 -50 53 0
53 31 25 0
19 -28 -6 0
-70 -21 12 0
4 -3 18 0
2 -42 63 0
-52 62 -25 0
-70 -9 -36 0
39 -42 -19 0
41 -2 12 0
-29 16 46 0
48 22 47 0
18 68 -58 0
-36 22 42 0
45 -58 10 0
16 57 -32 0
-68 -67 -60 0
-52 -45 -53 0
-55 -23 28 0
-36 -18 55 0
-62 -36 -27 0
17 -20 -68 0
26 70 41 0
5 47 18 0
-12 30 -14 0
-25 52 -20 0
16 30 41 0
-62 43 53 0
-50 26 -62 0
66 -49 -30 0
32 -55 -8 0
29 58 -28 0
-41 30 61 0
-9 31 49 0
-43 -47 69 0
60 16 -24 0
2 15 46 0
41 34 70 0
-39 3 32 0
17 -53 -49 0
-18 51 -61 0
42 30 47 0
-35 -6 68 0
22 9 -34 0
-6 -52 15 0
56 -59 -7 0
51 -41 -63 0
54 10 -5 0
-41 8 47 0
30 -1 -58 0
6 -4 -8 0
-22 55 -6 0
13 -45 -42 0
42 -35 3 0
-51 59 -43 0
21 -45 17 0
-49 56 16 0
-59 -36 28 0
-49 15 -19 0
-39 -46 25 0
21 11 63 0
44 -22 -59 0
32 17 70 0
-56 11 -15 0
5 65 -31 0
31 -57 -63 0
8 43 -31 0
47 -16 -17 0
-49 -69 -41 0
11 59 1 0
50 30 37 0
26 -10 -28 0
10 -41 -68 0
23 12 -58 0
4 38 -47 0
-64 -57 42 0
-25 -44 55 0
11 15 -51 0
-61 13 -68 0
-56 -67 4 0
47 -8 57 0
-4 37 -48 0
-69 -39 35 0
-13 -32 40 0
23 -41 -45 0
23 28 48 0
11 -34 -70 0
-22 2 6 0
-11 10 -1 0
