p cnf 70 265
28 -51 -49 0
52 -2 -3 0
67 -38 12 0
-29 -58 27 0
-8 17 -43 0
-26 -28 -63 0
-45 14 -17 0
-35 17 59 0
-40 -34 -49 0
49 7 -64 0
11 24 49 0
51 52 -55 0
3 -31 -70 0
-21 -45 -57 0
47 17 -15 0
-46 -47 -26 0
-13 61 12 0
56 39 55 0
58 16 -11 0
57 16 -4 0
-60 -28 -56 0
5 -35 43 0
-66 -62 4 0
-31 -69 22 0
-3 -44 61 0
13 44 51 0
47 -34 -30 0
-23 -56 -62 0
-64 -48 -33 0
-55 -63 47 0
-2 33 -53 0
47 -39 9 0
-66 65 70 0
18 -60 50 0
-2 -50 20 0
51 -46 -69 0
60 -31 23 0
64 -6 -7 0
14 66 37 0
27 -20 46 0
38 53 -44 0
49 -63 -52 0
40 -21 -22 0
-36 21 42 0
-5 -17 -65 0
-60 13 -22 0
34 -53 -28 0
-34 69 25 0
-17 15 -18 0
-65 -53 50 0
-56 18 11 0
29 14 42 0
-48 -21 57 0
-46 -33 -8 0
14 50 -24 0
-48 -33 2 0
10 -49 4 0
-19 -24 -45 0
-68 -31 -62 0
1 -16 69 0
42 9 -29 0
-21 11 30 0
13 -29 -69 0
-6 -61 -14 0
-16 14 -44 0
-22 -7 35 0
27 -70 -24 0
-60 67 -65 0
-13 -36 -11 0
5 -1 -61 0
-41 -26 49 0
-19 51 -15 0
26 24 30 0
46 14 45 0
29 4 70 0
-29 -19 -67 0
57 17 66 0
-5 27 -10 0
63 -9 -17 0
61 -39 1 0
31 27 -58 0
47 17 7 0
52 -63 -39 0
-45 -53 -2 0
13 42 21 0
67 -31 -5 0
44 61 -40 0
14 60 63 0
-61 -6 -19 0
48 43 49 0
-22 59 -28 0
17 -36 -8 0
22 59 -69 0
2 -70 58 0
65 32 48 0
-66 -57 -19 0
-50 24 51 0
-13 16 42 0
-19 -26 -4 0
21 -8 15 0
68 23 54 0
29 -4 -35 0
26 2 -7 0
-20 7 -45 0
-48 -7 -2 0
-43 -66 32 0
-13 36 -35 0
-35 -48 -67 0
-4 -9 -33 0
-39 53 51 0
-23 30 -11 0
-43 27 -24 0
61 30 46 0
27 -19 -21 0
-37 5 21 0
14 66 69 0
11 7 -31 0
24 -18 -33 0
2 -42 69 0
57 60 23 0
36 41 25 0
2 50 11 0
-17 11 -52 0
14 17 -35 0
-18 -23 -51 0
-42 -52 -33 0
12 28 -8 0
50 -63 -8 0
-33 -34 20 0
62 -61 -20 0
21 -43 -59 0
-32 -27 69 0
-46 52 48 0
-27 55 -58 0
1 -7 29 0
-60 61 25 0
-46 -16 67 0
-65 1 -12 0
24 38 28 0
20 55 -47 0
16 47 49 0
39 10 28 0
4 29 54 0
-62 -63 54 0
-15 2 -32 0
11 -1 55 0
57 41 18 0
-69 -15 32 0
18 24 -11 0
58 64 12 0
-25 -39 1 0
-27 43 -68 0
-49 19 22 0
18 -70 -27 0
-49 38 -8 0
38 34 -29 0
38 5 -3 0
-3 16 -35 0
57 -3 2 0
-8 26 58 0
66 -55 54 0
7 -36 61 0
8 -16 -51 0
28 39 -46 0
38 -50 26 0
-9 62 13 0
-49 66 -45 0
9 19 16 0
52 39 34 0
-44 -45 21 0
-52 61 -68 0
7 -9 -35 0
8 -67 -5 0
50 -17 38 0
57 -52 -13 0
59 -21 -9 0
-29 24 36 0
-40 24 5 0
-62 46 34 0
60 -22 26 0
19 46 -18 0
-34 -48 10 0
45 -7 5 0
-8 -28 62 0
61 -64 22 0
-48 20 27 0
-14 -27 -17 0
28 25 -44 0
36 -61 44 0
-27 -68 29 0
18 22 -56 0
28 -54 -5 0
44 35 -3 0
-12 3 -44 0
65 69 -8 0
39 49 19 0
-58 22 20 0
-56 -14 44 0
-40 46 20 0
51 -22 -4 0
18 -64 -25 0
-17 33 -9 0
-6 15 -8 0
62 -24 44 0
-67 -53 3 0
55 42 -9 0
40 -70 -60 0
-36 45 32 0
65 67 -68 0
49 -6 -27 0
-66 41 -48 0
68 -55 38 0
-50 38 49 0
-62 32 -48 0
67 35 -5 0
-15 -13 -58 0
-67 5 -12 0
66 50 41 0
15 39 65 0
-37 63 -2 0
57 -55 -36 0
-33 -12 -7 0
64 -2 -33 0
-55 -43 -13 0
-8 35 62 0
13 7 59 0
39 -21 -9 0
-61 -47 35 0
23 -52 -33 0
-46 4 16 0
-26 -29 40 0
-38 -17 56 0
20 -8 45 0
-37 -21 42 0
-9 -61 -45 0
39 -30 38 0
16 -12 -33 0
-47 -35 43 0
23 -31 53 0
66 25 70 0
4 60 -52 0
55 -56 -8 0
-14 60 -63 0
-1 -24 -29 0
27 19 17 0
54 -7 40 0
-39 15 -3 0
-43 65 64 0
46 28 68 0
7 60 63 0
13 4 -21 0
49 -38 -12 0
-11 2 45 0
-59 22 -25 0
-27 25 18 0
6 67 39 0
-13 -63 10 0
-60 16 -18 0
-69 -1 -49 0
-51 6 65 0
-53 45 22 0
49 64 -1 0
34 -24 -7 0
-26 38 -28 0
18 -39 -14 0
