p cnf 70 280
-23 69 60 0
-29 -35 -11 0
-57 -22 50 0
2 -23 -38 0
8 59 -13 0
14 18 -57 0
-70 -34 54 0
-26 7 37 0
1 -43 45 0
-19 6 -47 0
15 -66 -67 0
-45 -9 55 0
62 -16 20 0
-52 -54 -15 0
38 -64 -18 0
56 -29 -60 0
-69 45 -46 0
-23 37 -48 0
-53 -15 32 0
-66 -15 -25 0
18 40 22 0
-59 -15 -21 0
-18 57 56 0
-51 46 22 0
-21 2 -44 0
-33 -38 16 0
59 -53 50 0
33 -2 -16 0
-64 8 -32 0
57 -33 44 0
33 -10 45 0
1 55 -52 0
52 29 26 0
-65 1 -67 0
-47 -55 -13 0
1 -40 -9 0
41 62 67 0
-19 42 64 0
48 49 -12 0
55 -50 45 0
-28 58 6 0
-35 8 -32 0
-45 20 47 0
51 -31 57 0
-34 62 35 0
55 15 16 0
7 2 -68 0
20 23 -29 0
46 42 21 0
42 -64 60 0
-14 38 32 0
-7 -32 -68 0
-1 -14 -39 0
5 -46 12 0
9 -62 -24 0
25 67 9 0
11 -53 12 0
13 -1 18 0
62 -59 29 0
30 25 -64 0
-21 -39 53 0
19 66 -1 0
31 -57 7 0
-54 -42 -40 0
24 -11 1 0
-13 47 33 0
-4 -37 -64 0
59 -55 27 0
-65 -47 -22 0
9 -4 18 0
-26 -9 -61 0
16 -25 -15 0
51 44 40 0
6 -21 25 0
-38 8 -13 0
-22 28 56 0
16 1 -4 0
-70 6 -28 0
17 -20 13 0
-53 -69 -68 0
-62 38 4 0
35 -3 -53 0
-16 69 -46 0
11 14 -7 0
-19 -47 64 0
8 -64 -17 0
-66 -55 -14 0
36 -18 44 0
22 30 -3 0
38 -2 51 0
-13 29 62 0
19 56 38 0
9 -66 -61 0
-30 -60 29 0
56 18 21 0
22 -1 -43 0
-24 61 31 0
40 -39 45 0
-31 60 -54 0
-70 -62 24 0
-14 -19 34 0
52 -19 24 0
-22 -44 -4 0
-45 -19 -1 0
-31 -29 -61 0
23 14 -19 0
30 -44 35 0
68 -23 -14 0
-4 44 -17 0
-59 -9 41 0
12 53 43 0
-47 11 -2 0
53 6 5 0
-63 53 -5 0
-57 -30 -7 0
21 44 -55 0
51 -10 -45 0
15 -44 -27 0
58 48 42 0
-39 15 -22 0
46 -34 -29 0
44 -46 16 0
-23 -62 46 0
-63 35 -61 0
60 18 9 0
45 35 -9 0
28 48 -16 0
59 -53 -24 0
-24 45 -37 0
64 1 35 0
-27 -12 -48 0
17 62 41 0
-64 -62 -16 0
43 39 -26 0
13 -10 54 0
41 -13 -70 0
-44 40 28 0
54 14 10 0
41 -22 -8 0
67 57 35 0
-23 -52 68 0
-33 -8 -69 0
-10 43 -54 0
35 29 -17 0
48 -4 -3 0
66 47 -44 0
-37 12 -59 0
-41 39 -55 0
-45 -43 1 0
-55 -50 -67 0
21 20 27 0
49 24 -51 0
-7 -66 42 0
14 45 16 0
24 -21 -8 0
43 36 -37 0
-43 -61 -19 0
-65 48 -57 0
-57 -62 -59 0
51 -5 48 0
-64 -44 46 0
-55 -58 -33 0
-14 -40 -17 0
68 -67 -69 0
-30 27 -52 0
14 -61 -18 0
49 21 -62 0
10 -27 41 0
-12 -70 7 0
-5 54 43 0
-5 -58 -4 0
31 -32 18 0
37 -28 -46 0
21 6 70 0
17 -51 55 0
60 -61 18 0
24 -69 8 0
28 34 -17 0
-37 -4 -41 0
33 25 -18 0
16 -56 27 0
27 -56 -15 0
13 68 70 0
56 -68 -22 0
-20 -38 -37 0
21 -23 56 0
-8 6 61 0
-7 -22 -33 0
57 64 6 0
63 -9 14 0
8 1 -18 0
-32 -64 -7 0
-43 -17 61 0
40 11 46 0
-8 -9 -63 0
50 -42 -20 0
67 64 -60 0
-29 -67 -21 0
18 -62 10 0
-32 61 41 0
40 15 -47 0
68 -64 -53 0
66 -48 -9 0
-44 -19 -20 0
58 -43 35 0
10 38 -9 0
19 44 7 0
-34 13 -27 0
-66 39 -13 0
-46 -8 -70 0
46 69 -2 0
51 47 40 0
-59 -35 -15 0
10 46 -20 0
-54 1 -24 0
5 -39 69 0
-14 -9 32 0
13 -66 -19 0
-35 59 29 0
-44 -26 30 0
29 -30 -62 0
11 -43 -65 0
32 8 -2 0
-1 67 15 0
-33 -11 35 0
-50 -2 -22 0
25 40 -52 0
-33 54 51 0
-54 64 18 0
46 24 -32 0
-55 -48 -17 0
24 -15 -46 0
-9 59 26 0
27 -59 -50 0
-63 67 57 0
-27 67 36 0
11 36 -26 0
-30 29 -33 0
-25 22 -3 0
-30 -55 7 0
-17 -30 12 0
-25 60 -1 0
58 -7 14 0
-29 17 -5 0
14 -66 -43 0
-51 53 9 0
49 64 -20 0
-68 -13 -10 0
-41 40 64 0
-28 -54 -3 0
-52 -35 -47 0
-54 40 63 0
36 -57 8 0
3 -53 13 0
-48 -15 -6 0
43 35 -30 0
68 -26 44 0
69 -4 -36 0
59 15 57 0
43 28 39 0
-8 1 -35 0
-18 50 -28 0
-58 57 44 0
-41 24 68 0
-65 -6 -25 0
-33 65 3 0
70 -51 -40 0
-17 -29 42 0
49 61 10 0
-43 26 65 0
61 -52 24 0
-42 -38 3 0
-54 32 -53 0
-36 2 -25 0
-48 -23 -14 0
20 -38 2 0
-13 -39 -67 0
18 42 -25 0
-10 -55 -51 0
-29 65 17 0
