p cnf 70 295
41 -67 5 0
28 -6 -60 0
-57 40 -62 0
3 7 -38 0
35 61 -31 0
-14 -19 -46 0
-25 10 49 0
-68 -8 32 0
63 36 64 0
-4 19 64 0
29 -68 -15 0
53 12 -36 0
11 -41 -1 0
46 -55 7 0
41 57 69 0
-21 -16 -20 0
-36 15 47 0
12 8 70 0
-39 -40 -62 0
-8 49 -50 0
17 -41 -11 0
51 12 -61 0
-58 70 -65 0
18 61 -70 0
-45 -29 -26 0
-14 11 57 0
51 43 -21 0
34 -10 65 0
-70 -6 -62 0
-67 40 -6 0
-7 13 62 0
34 -39 -28 0
15 40 -25 0
15 7 32 0
55 -6 18 0
-28 18 -6 0
59 -12 -57 0
-54 -35 37 0
-17 37 -16 0
32 48 65 0
34 67 21 0
61 -47 34 0
7 -70 -12 0
-64 34 38 0
-46 -21 -56 0
40 26 3 0
69 44 -46 0
-66 52 48 0
1 53 50 0
-11 -42 57 0
64 -34 59 0
-24 16 11 0
41 64 37 0
33 61 -23 0
58 52 -39 0
7 -25 -22 0
17 67 15 0
-4 -25 57 0
-9 42 36 0
-30 14 -65 0
61 -27 56 0
-37 -49 -59 0
-44 39 38 0
-24 -50 -29 0
-29 -22 -24 0
-41 -44 -22 0
32 -19 -40 0
10 -16 -69 0
45 -67 51 0
-45 28 -63 0
1 4 36 0
42 25 -45 0
-68 27 53 0
-23 33 69 0
-3 10 -64 0
-6 69 -49 0
7 31 -2 0
-21 12 55 0
20 69 -6 0
17 -39 41 0
-68 -38 -49 0
-22 -3 -1 0
6 69 60 0
-25 -49 20 0
-53 -16 23 0
15 -16 65 0
-30 -14 -6 0
50 -29 38 0
-13 53 -59 0
-35 -55 44 0
8 24 62 0
1 -16 59 0
-35 43 28 0
-25 -10 49 0
-58 -40 47 0
-14 -15 44 0
-19 -21 61 0
46 -21 -26 0
-48 -5 9 0
-48 -31 20 0
9 -47 -57 0
7 57 -52 0
20 52 -49 0
4 -7 -38 0
10 41 40 0
-12 -21 9 0
-1 -46 48 0
62 28 12 0
-34 14 -41 0
35 1 -16 0
44 6 -50 0
20 -31 38 0
-56 26 -65 0
15 55 -50 0
-30 32 -69 0
49 -13 39 0
4 -14 62 0
65 -52 12 0
42 43 46 0
22 -9 36 0
2 63 -47 0
34 -48 12 0
41 -53 -49 0
66 15 -43 0
-51 48 -42 0
-39 -42 -17 0
36 -8 17 0
-2 -70 46 0
38 52 10 0
28 4 -47 0
13 -60 -67 0
-59 15 -19 0
20 29 -16 0
-47 -37 -46 0
-45 -5 53 0
-64 67 32 0
-12 50 9 0
-66 63 -6 0
1 -40 -45 0
11 -17 12 0
-45 -26 -18 0
-40 -23 -33 0
42 63 67 0
18 -5 25 0
-64 -54 18 0
54 -1 -67 0
18 -42 6 0
7 -4 -36 0
-47 52 -57 0
57 55 -59 0
6 20 2 0
59 44 15 0
-42 -15 -52 0
37 -69 -57 0
27 59 -19 0
8 -56 -22 0
-3 34 18 0
69 61 -27 0
50 57 -64 0
62 43 38 0
3 11 -48 0
3 -30 59 0
37 -10 -1 0
18 -38 -16 0
41 22 52 0
22 -55 -17 0
-36 3 -25 0
33 6 17 0
64 -26 -16 0
9 -19 53 0
-45 29 68 0
63 -24 -59 0
-44 -31 54 0
1 -53 -62 0
-8 57 23 0
-33 -42 12 0
-42 -68 13 0
-45 9 -54 0
29 27 18 0
23 19 48 0
-40 5 -38 0
34 36 -62 0
15 20 -3 0
17 67 31 0
33 -1 -20 0
-20 60 -12 0
-50 6 -60 0
3 -53 8 0
-45 36 -40 0
-25 -46 -32 0
-13 -36 56 0
27 -8 -38 0
25 -51 -55 0
1 24 8 0
-36 13 66 0
-43 -21 -13 0
-26 38 -65 0
14 38 63 0
41 -29 2 0
34 15 2 0
6 -7 -27 0
-20 3 -46 0
31 26 -61 0
-7 -26 -58 0
-19 -33 -41 0
-58 25 40 0
69 9 54 0
-17 37 21 0
-19 58 24 0
-60 12 -3 0
-52 16 45 0
-63 -40 49 0
53 58 -18 0
-29 11 -7 0
60 43 -59 0
-18 47 9 0
41 -8 -65 0
8 33 -57 0
-4 -23 21 0
60 5 -48 0
-11 -35 58 0
-68 -47 53 0
3 47 -62 0
66 -35 -6 0
46 -19 -5 0
15 -38 31 0
51 -60 56 0
-52 4 -10 0
-50 -55 -20 0
-70 -20 42 0
-37 -12 9 0
-50 22 51 0
-61 40 16 0
29 52 -5 0
58 42 -62 0
69 65 27 0
15 -41 -70 0
-28 65 -46 0
34 -19 70 0
-66 -23 68 0
-1 -7 54 0
-66 44 62 0
-57 61 -29 0
-30 13 -61 0
34 18 69 0
-42 30 -7 0
-9 14 46 0
-1 -54 -10 0
67 19 -65 0
-15 56 7 0
-48 -47 39 0
58 62 -2 0
65 -53 -55 0
-29 3 -6 0
19 -67 -2 0
-40 37 -20 0
49 -20 35 0
41 -1 69 0
44 -6 -68 0
-59 -4 -22 0
12 63 58 0
6 67 -46 0
-52 28 13 0
1 -62 -13 0
-13 -24 32 0
2 22 70 0
58 -5 9 0
35 67 -69 0
-39 -49 23 0
-41 23 -63 0
-20 -59 -63 0
23 28 -59 0
-4 -35 60 0
44 -29 34 0
65 -3 -47 0
-25 50 -37 0
57 -8 -35 0
13 61 -48 0
-47 -8 5 0
65 10 32 0
4 7 9 0
-5 -57 26 0
-50 51 -12 0
-35 -65 -55 0
8 32 -52 0
-23 -29 -56 0
-20 -52 10 0
-6 39 28 0
9 -15 -4 0
62 6 25 0
30 26 9 0
8 19 51 0
32 -37 61 0
-37 -41 61 0
-23 -60 -59 0
