p cnf 70 305
17 -58 49 0
62 24 25 0
29 -35 -28 0
-25 47 63 0
4 10 -43 0
1 -51 -70 0
21 -30 -15 0
55 48 38 0
-19 -31 -1 0
39 -29 -66 0
-21 44 42 0
-32 20 3 0
42 -58 -59 0
-17 -18 51 0
-29 4 1 0
52 54 46 0
64 -15 30 0
-62 -34 24 0
-63 8 -30 0
-57 -36 -49 0
35 -41 -8 0
20 -63 17 0
62 60 19 0
48 64 28 0
37 -53 -51 0
-34 67 44 0
-39 43 14 0
-26 12 6 0
41 61 52 0
9 32 18 0
-37 45 14 0
8 25 41 0
-33 70 14 0
-50 -42 29 0
-20 -52 -35 0
-41 -37 54 0
-46 -68 -18 0
48 47 56 0
-39 -66 -1 0
-29 36 -34 0
-24 -63 -25 0
23 -63 16 0
-39 15 42 0
-25 24 -49 0
-17 11 7 0
-53 -46 -49 0
20 -59 -40 0
26 -36 -14 0
10 66 -63 0
61 -26 28 0
-6 39 -8 0
2 -21 63 0
23 26 -7 0
-6 38 56 0
27 -67 -51 0
58 7 31 0
21 41 -67 0
37 8 13 0
26 -45 53 0
-42 37 -9 0
42 49 -21 0
10 57 -20 0
58 -28 7 0
46 -39 -10 0
-40 -48 1 0
-1 -39 -3 0
7 2 28 0
-68 -41 -11 0
69 -23 -37 0
-55 64 -14 0
1 39 -37 0
36 -67 -5 0
-56 5 -53 0
27 20 -33 0
58 15 -53 0
-39 12 16 0
7 -23 -54 0
45 -4 -38 0
48 -21 10 0
41 62 -8 0
33 9 -37 0
31 52 50 0
15 -48 -64 0
-67 -57 49 0
26 -56 55 0
-17 31 3 0
-68 44 -10 0
57 48 15 0
67 15 -48 0
-5 7 -19 0
-42 -7 6 0
-14 37 21 0
60 64 17 0
40 -12 -69 0
-27 68 5 0
37 -44 -8 0
-58 -62 31 0
48 -16 69 0
15 -2 60 0
23 37 31 0
61 5 -8 0
22 70 -65 0
-7 -61 -6 0
8 61 11 0
-52 -8 61 0
-19 -53 45 0
-27 65 34 0
8 -31 -49 0
27 29 -15 0
27 63 4 0
-5 -43 -2 0
14 -58 27 0
42 5 64 0
59 23 -31 0
-64 -58 28 0
-14 7 29 0
4 65 9 0
1 69 -17 0
67 -7 60 0
-66 61 52 0
30 -70 5 0
-66 -55 35 0
35 -24 -54 0
31 67 49 0
2 -17 -15 0
-49 68 -46 0
50 -19 17 0
-19 -34 -68 0
-51 21 -44 0
-26 18 -15 0
-11 41 -39 0
-16 69 -37 0
13 18 10 0
37 5 68 0
68 65 -25 0
26 -30 -50 0
32 -60 61 0
-41 18 27 0
67 57 13 0
34 57 -32 0
35 19 -14 0
26 -55 28 0
-21 -6 -57 0
-68 9 -57 0
-21 -1 -69 0
19 48 52 0
-51 -45 16 0
69 -12 -21 0
42 -28 -17 0
12 -7 -35 0
-15 -62 -64 0
-70 7 -14 0
-66 -5 7 0
-17 -57 9 0
-35 -13 -64 0
-50 -13 -17 0
-34 -55 -44 0
13 -43 -28 0
51 25 -43 0
-64 5 54 0
-8 47 16 0
64 -15 70 0
59 -53 -46 0
-46 -30 -53 0
-12 16 34 0
22 65 -18 0
-57 -69 -59 0
-54 57 -53 0
-10 37 26 0
9 19 61 0
70 16 -5 0
-17 -44 18 0
-55 -42 -14 0
37 2 -16 0
36 -15 -34 0
-46 64 32 0
-10 -24 -66 0
-54 -64 -24 0
30 -22 64 0
-56 18 -61 0
-25 -22 -15 0
62 -15 57 0
55 15 -41 0
27 56 36 0
-4 -42 -21 0
-19 -16 39 0
56 -66 47 0
-28 -22 -13 0
47 -24 -68 0
58 -7 44 0
-53 29 -20 0
6 36 -66 0
-64 -67 10 0
-44 -16 19 0
-15 63 -56 0
-24 40 47 0
-54 -24 20 0
-35 -38 42 0
50 -28 16 0
68 10 32 0
7 -65 10 0
39 -48 -31 0
18 -43 -9 0
-57 -34 -12 0
-40 19 11 0
57 -66 -21 0
-48 34 -3 0
68 32 52 0
-42 -20 -2 0
5 64 31 0
-48 -12 10 0
35 18 -6 0
31 -11 -8 0
52 23 -11 0
-50 -33 -8 0
-37 -32 14 0
-41 30 -67 0
-43 -69 15 0
-46 48 -10 0
-62 33 -9 0
-65 -28 6 0
31 67 49 0
54 49 32 0
44 46 5 0
-34 54 6 0
12 -41 5 0
34 10 -42 0
-46 25 -30 0
-14 28 -12 0
-54 53 -4 0
66 32 24 0
-56 66 12 0
-55 26 -58 0
-25 -55 -14 0
1 -20 -63 0
42 61 37 0
2 27 64 0
-15 22 -6 0
-24 44 -42 0
52 -16 69 0
-22 -9 -64 0
-56 -22 46 0
-18 -25 -65 0
61 46 -22 0
-51 62 48 0
7 62 -36 0
60 -34 -26 0
22 -27 21 0
20 60 28 0
33 11 39 0
27 -1 66 0
67 -47 27 0
-52 13 68 0
25 -64 16 0
-29 2 33 0
37 65 -7 0
70 -55 20 0
18 -29 -12 0
66 -70 39 0
-50 13 -3 0
57 42 32 0
-34 -66 -42 0
-51 57 -17 0
-54 67 -33 0
-67 -45 -4 0
41 -35 25 0
44 30 -27 0
6 -39 -25 0
58 25 8 0
-66 29 -19 0
60 45 10 0
-3 30 50 0
36 -47 -33 0
10 13 2 0
23 31 -59 0
-12 -41 -28 0
29 -13 -25 0
-55 -4 -25 0
59 -8 31 0
20 -52 -10 0
21 57 12 0
-56 -18 25 0
57 -26 -52 0
-66 64 10 0
-1 20 -13 0
-63 33 38 0
63 -20 33 0
-13 3 24 0
-42 10 31 0
12 37 -35 0
-41 37 59 0
47 5 15 0
-69 38 -60 0
46 -27 -19 0
-23 -4 53 0
49 -22 -9 0
25 -16 61 0
11 -63 16 0
30 -55 40 0
26 -31 -47 0
50 -19 -41 0
-61 -37 -26 0
32 -37 -15 0
-4 -61 -14 0
26 64 65 0
