p cnf 70 265
43 64 2 0
42 -70 -12 0
-61 18 49 0
-58 -16 28 0
9 66 14 0
54 -22 -58 0
-20 52 8 0
61 -70 -16 0
2 45 54 0
-54 -2 -60 0
28 -47 -14 0
16 -27 -45 0
67 -15 53 0
-65 -51 -16 0
-45 -53 68 0
11 -25 -47 0
27 -69 37 0
-12 60 16 0
-70 31 50 0
27 -21 32 0
23 37 -50 0
-64 52 34 0
-38 -16 -46 0
-25 -46 -50 0
56 20 -24 0
-45 60 -40 0
-28 -9 -69 0
-65 -35 -66 0
-65 -60 -4 0
59 -60 -11 0
-35 -40 -50 0
-23 -60 58 0
61 49 -29 0
-1 -6 -2 0
18 31 -7 0
-67 29 17 0
40 62 12 0
37 -2 55 0
60 -13 -53 0
-34 -47 51 0
-43 58 52 0
-6 -27 -31 0
7 29 -31 0
-30 -2 -45 0
18 -14 49 0
-48 61 56 0
16 -4 -6 0
63 -10 -56 0
-31 -53 -35 0
-64 56 -16 0
-67 65 -36 0
-41 13 48 0
55 63 49 0
9 23 25 0
14 21 -65 0
-18 19 6 0
38 22 36 0
4 -46 -34 0
-3 17 -48 0
24 14 -5 0
32 -61 -31 0
-41 70 -20 0
24 17 -14 0
-61 31 62 0
-14 31 47 0
28 58 67 0
-2 19 45 0
54 -24 -47 0
46 45 -52 0
34 63 -68 0
34 46 12 0
34 4 59 0
-23 62 -18 0
20 -2 68 0
-54 30 -25 0
32 -38 -56 0
-18 -1 29 0
25 59 24 0
-9 -70 -67 0
-27 46 53 0
-44 5 -27 0
-26 63 53 0
38 37 -16 0
34 -28 -17 0
66 -4 16 0
58 48 26 0
65 14 57 0
57 -14 47 0
18 -57 -53 0
-43 16 64 0
-41 -53 -61 0
-20 24 70 0
-33 -32 30 0
21 -67 -20 0
-30 -65 19 0
-50 13 15 0
-57 -38 52 0
-57 4 11 0
-67 -40 38 0
52 46 -60 0
44 -33 64 0
42 16 -18 0
15 67 1 0
39 6 -47 0
26 12 52 0
-11 64 38 0
-47 -42 23 0
-69 -38 34 0
-11 50 8 0
67 -63 25 0
-33 11 -23 0
-5 70 62 0
-30 -8 -35 0
-67 65 -34 0
-48 -6 -12 0
-4 -47 18 0
60 53 -2 0
-50 -25 64 0
-30 -33 44 0
-7 25 70 0
3 27 2 0
-7 -58 47 0
16 -57 47 0
47 -53 -30 0
-62 53 4 0
-60 -65 -27 0
15 52 30 0
22 52 53 0
-33 14 2 0
30 -36 8 0
-8 58 -61 0
34 61 -33 0
57 41 -26 0
-9 -20 -45 0
70 -69 -13 0
18 -59 -56 0
70 -61 59 0
40 -43 56 0
16 2 40 0
47 56 50 0
-52 17 31 0
-42 -56 -53 0
-14 -47 61 0
57 -52 -15 0
70 -60 45 0
-40 3 43 0
-42 -8 -66 0
-36 -45 23 0
61 -16 8 0
-36 54 -16 0
-65 32 9 0
-29 63 61 0
-48 -60 64 0
-6 -2 -56 0
-37 29 -42 0
-45 -15 -29 0
48 18 46 0
-20 -38 -22 0
33 -49 69 0
53 24 -67 0
-4 55 -36 0
52 48 20 0
68 -62 -3 0
-10 -70 43 0
-24 19 52 0
-28 -49 -70 0
-28 65 2 0
-36 5 -51 0
-19 -69 22 0
-32 22 -51 0
-28 -64 43 0
68 -28 -34 0
32 61 53 0
9 -70 -28 0
-17 -29 56 0
43 58 40 0
56 -57 55 0
39 46 16 0
18 2 -46 0
-64 -8 -58 0
-18 43 34 0
-12 -37 -43 0
-15 35 36 0
-19 -27 7 0
-13 -21 28 0
48 30 12 0
-61 32 64 0
57 -62 -21 0
-40 -50 -6 0
-16 53 25 0
32 -18 26 0
58 54 -56 0
-48 -30 -64 0
50 -30 56 0
-14 47 -66 0
44 58 10 0
45 -48 61 0
-39 22 41 0
33 -53 11 0
10 -7 14 0
-16 37 12 0
21 39 -55 0
-19 8 51 0
62 -53 -23 0
-36 -48 -37 0
-70 68 -32 0
34 -57 10 0
-68 50 25 0
-15 19 58 0
-43 54 -58 0
-38 -34 -39 0
-12 -9 14 0
3 10 37 0
-3 56 67 0
-16 -26 45 0
-26 -64 -4 0
2 -42 -62 0
-29 20 39 0
4 -69 -50 0
13 -59 20 0
33 38 -3 0
-1 58 -28 0
-56 51 61 0
-16 -44 -36 0
5 -23 28 0
39 51 56 0
-49 -18 -46 0
-37 -10 19 0
-20 16 -32 0
57 -60 61 0
45 -59 62 0
-39 26 44 0
-42 -64 56 0
60 19 31 0
2 -42 16 0
-19 -22 64 0
14 3 67 0
56 42 68 0
-5 50 -16 0
-46 11 -16 0
-2 35 36 0
-53 -44 60 0
69 -1 -62 0
-22 59 -50 0
26 29 -32 0
-55 8 -14 0
66 38 -60 0
6 53 -10 0
32 17 -1 0
-49 -17 -7 0
-13 -2 -50 0
-33 42 -36 0
59 -3 -27 0
-45 -20 6 0
-29 44 -2 0
-65 29 -40 0
-17 -42 31 0
31 44 26 0
46 -63 -53 0
-50 -3 25 0
-19 4 -30 0
-27 -47 -59 0
-68 70 -40 0
42 58 18 0
-52 30 19 0
