p cnf 70 290
19 66 52 0
47 10 45 0
66 13 -24 0
-54 12 11 0
-35 -13 -55 0
50 -62 40 0
2 -3 52 0
55 -69 -58 0
68 -57 -52 0
-31 -65 69 0
11 -3 -26 0
64 -22 54 0
35 -37 -34 0
10 -60 -7 0
42 41 -38 0
-8 -51 -26 0
62 42 30 0
-20 1 -62 0
-34 56 -5 0
-8 -25 -14 0
67 -70 45 0
-62 20 7 0
7 16 -23 0
6 -5 -22 0
-36 18 38 0
-13 -23 21 0
1 -56 -7 0
9 24 -36 0
-55 -36 1 0
-36 -40 23 0
45 64 35 0
29 26 49 0
44 15 -22 0
53 -28 -37 0
18 62 -7 0
5 29 64 0
-15 -66 -38 0
-63 16 37 0
-51 63 -55 0
-63 -42 -19 0
56 2 62 0
-58 36 -16 0
17 -22 64 0
-53 30 59 0
57 -30 36 0
-43 45 -16 0
-1 59 -41 0
-57 -62 -39 0
9 58 34 0
46 44 -48 0
38 -18 6 0
-12 61 -23 0
63 55 -20 0
31 -26 -12 0
-66 -32 -8 0
2 -55 47 0
-31 2 -21 0
67 -5 54 0
-42 -18 24 0
12 36 66 0
-68 -59 62 0
-29 24 -19 0
-44 -53 -5 0
-33 55 -26 0
-70 -46 68 0
36 -32 13 0
39 -2 16 0
-8 -35 14 0
-61 66 54 0
49 -20 67 0
-24 51 31 0
-65 44 52 0
52 6 70 0
-19 25 30 0
67 -10 6 0
20 -33 -29 0
14 11 52 0
18 21 59 0
38 1 -20 0
-39 -67 30 0
2 42 52 0
56 -67 -63 0
-46 37 -68 0
31 47 -51 0
-7 14 11 0
-41 -63 -34 0
-32 -20 -11 0
27 -41 11 0
27 69 -57 0
44 -24 59 0
30 -38 19 0
-16 -32 68 0
60 30 29 0
-33 69 -2 0
25 67 -56 0
-25 31 23 0
-48 39 4 0
-52 65 -26 0
-63 18 -16 0
-62 -47 16 0
45 -58 -30 0
60 48 25 0
66 -30 -48 0
-8 -30 -60 0
8 10 -9 0
50 39 -40 0
7 43 -60 0
17 -60 66 0
12 -62 -58 0
39 44 12 0
-12 29 24 0
35 30 39 0
-67 -36 5 0
19 -68 -15 0
-17 -34 -60 0
68 7 10 0
-69 -4 -57 0
-16 -66 38 0
61 10 -6 0
-61 32 49 0
-33 -67 -37 0
-50 52 -54 0
-58 64 7 0
-47 -48 36 0
-70 -28 -17 0
-47 44 -55 0
-19 -35 -60 0
-23 -28 66 0
53 -51 16 0
-55 30 -36 0
37 13 24 0
-33 10 44 0
31 27 -26 0
60 -54 -55 0
60 -16 -63 0
9 -29 -44 0
24 70 -32 0
-10 40 53 0
-4 -46 -60 0
51 32 -40 0
60 -66 7 0
-15 -5 34 0
51 56 61 0
8 7 -32 0
-61 42 45 0
31 -60 -40 0
-55 -7 22 0
-51 -14 64 0
27 47 15 0
40 30 -43 0
22 26 -8 0
-46 54 12 0
56 34 59 0
-21 65 -58 0
33 -43 68 0
-29 50 -23 0
26 -33 -61 0
-30 -58 -47 0
27 51 22 0
10 61 -45 0
-62 -53 -39 0
55 66 -33 0
-3 -48 70 0
-29 -13 -45 0
50 -1 60 0
32 42 -18 0
59 25 -28 0
34 5 -4 0
-10 40 14 0
-41 -31 3 0
-27 31 -29 0
-33 45 21 0
70 -41 -38 0
-8 70 69 0
-55 11 -15 0
-17 -28 -33 0
-42 -50 10 0
-51 -16 -22 0
-34 53 55 0
-32 -45 -38 0
-69 -6 18 0
70 -42 61 0
-65 -19 -52 0
38 58 45 0
14 62 15 0
-70 24 -53 0
-2 68 7 0
-48 -7 -9 0
-20 -68 3 0
-51 30 67 0
21 -35 63 0
-61 -67 -45 0
59 -32 64 0
56 -52 -66 0
48 18 32 0
65 -27 40 0
9 -13 -42 0
50 1 47 0
-43 58 40 0
-37 -5 14 0
55 -62 -11 0
-38 -6 -54 0
67 31 -6 0
15 -55 1 0
-39 -5 -63 0
-67 21 54 0
-63 46 9 0
49 -66 -52 0
-35 20 69 0
-39 -43 -19 0
-12 -20 -16 0
6 7 50 0
-41 -18 -9 0
53 11 33 0
41 64 10 0
-55 -1 -12 0
66 -15 -40 0
-14 19 -54 0
51 59 52 0
16 -63 35 0
-5 -54 -7 0
55 20 -4 0
-55 -48 -3 0
-43 35 -46 0
46 -4 -23 0
-46 -59 -26 0
-56 32 -68 0
-70 34 62 0
63 28 -18 0
17 -52 -31 0
-43 -6 63 0
13 63 26 0
54 28 57 0
45 55 -21 0
21 -66 -28 0
17 28 66 0
-9 -62 -38 0
-9 69 41 0
-34 70 -6 0
-4 62 -34 0
-43 70 64 0
-45 43 -17 0
-25 -23 31 0
-9 21 31 0
-50 -29 -26 0
55 1 20 0
-63 41 60 0
39 37 44 0
-42 -58 -23 0
-37 27 41 0
-11 36 37 0
60 -45 -22 0
-15 34 -9 0
-44 58 24 0
37 -23 -69 0
-66 -43 5 0
-35 12 48 0
-61 -52 -10 0
-32 -48 11 0
47 -32 -26 0
-43 61 30 0
6 -5 21 0
-16 -23 -3 0
-63 -47 -53 0
65 37 32 0
-9 -42 4 0
-44 2 -5 0
-53 60 11 0
57 50 23 0
44 -58 36 0
-11 5 -69 0
65 -34 25 0
45 -18 -32 0
7 -26 24 0
-5 -42 61 0
-9 15 37 0
-35 -62 67 0
-36 46 -37 0
-34 3 44 0
54 65 6 0
10 -26 35 0
65 60 11 0
49 27 24 0
-53 -10 52 0
50 -67 -27 0
60 -36 -1 0
-52 20 28 0
46 -55 49 0
70 44 24 0
37 3 40 0
