p cnf 70 285
41 -48 60 0
-62 4 -35 0
12 -53 35 0
-15 60 51 0
-31 -54 -26 0
11 -31 48 0
-5 14 -50 0
58 51 57 0
-8 -67 -54 0
-26 -67 -30 0
-22 -58 60 0
-12 28 64 0
43 -66 11 0
33 -50 28 0
-41 12 -55 0
29 -18 -39 0
54 -39 65 0
61 67 9 0
11 34 -14 0
54 -11 35 0
51 -9 32 0
-33 13 -1 0
-46 1 -11 0
27 15 -22 0
42 15 41 0
43 -41 -48 0
33 -63 66 0
-64 -7 -42 0
-59 13 -48 0
63 -24 -48 0
-2 25 -20 0
40 33 17 0
-3 -9 -12 0
-46 -59 -27 0
5 -63 -21 0
-16 -24 8 0
-66 63 -13 0
-8 -36 -63 0
-45 -51 -21 0
47 46 -69 0
70 -33 55 0
65 -6 -13 0
-27 20 -61 0
20 47 38 0
33 41 -58 0
-3 -11 -6 0
66 -69 63 0
10 -1 63 0
32 -38 52 0
-19 -37 -43 0
43 -31 -57 0
-41 -50 46 0
66 -60 -53 0
53 17 -35 0
50 -51 -36 0
-60 24 -22 0
-46 9 37 0
39 -19 -69 0
18 21 20 0
2 -11 -8 0
48 20 35 0
-61 24 48 0
-55 -40 -7 0
21 -13 70 0
-50 37 66 0
33 53 -50 0
25 55 -27 0
65 21 -17 0
-68 37 39 0
5 -7 65 0
-1 -30 -18 0
-14 46 -30 0
36 -33 -28 0
-70 15 4 0
37 -19 46 0
47 66 -56 0
-39 -8 4 0
-30 -37 -62 0
-18 3 13 0
5 59 -62 0
-31 67 -18 0
-42 34 54 0
22 28 -19 0
-22 8 32 0
-66 -39 -26 0
-33 -46 -10 0
63 30 14 0
25 47 -29 0
-69 70 -20 0
-3 -19 69 0
49 69 29 0
39 5 -69 0
-51 70 33 0
-50 8 58 0
-15 44 68 0
64 -24 -35 0
-48 -45 -63 0
-16 36 40 0
-18 -6 19 0
58 -51 -47 0
31 55 -16 0
-61 -13 -17 0
6 -40 5 0
-47 -24 8 0
-65 -10 -48 0
42 -43 -35 0
-64 -3 -9 0
-39 31 -29 0
-59 -51 -20 0
16 -70 17 0
-22 -52 7 0
37 1 -64 0
-38 -41 56 0
58 -24 -30 0
20 -45 -33 0
36 32 18 0
-23 41 57 0
51 -32 -11 0
-16 27 -45 0
-54 64 65 0
-5 -17 -24 0
-57 -28 51 0
-64 -10 -5 0
31 -42 65 0
-10 36 -24 0
-13 -35 -42 0
33 4 59 0
-69 52 66 0
22 -51 -55 0
9 -42 -64 0
53 -7 63 0
50 -48 62 0
67 69 -8 0
25 -11 52 0
50 51 -23 0
26 -18 64 0
-70 66 -6 0
6 22 -12 0
-66 28 35 0
-55 49 -45 0
-65 -14 -2 0
70 66 -51 0
-40 10 32 0
-66 11 65 0
14 69 -66 0
56 42 -61 0
-3 -56 64 0
43 3 -15 0
-69 -45 21 0
54 -67 24 0
37 -57 28 0
-42 -57 -2 0
-68 48 32 0
63 42 15 0
-65 8 -11 0
-6 -63 8 0
60 28 19 0
-25 42 40 0
48 -34 -46 0
62 12 -18 0
-29 -19 55 0
-29 64 -70 0
65 -16 -36 0
-27 59 -66 0
4 70 44 0
36 8 46 0
-37 -33 34 0
-66 51 -40 0
2 -24 27 0
3 -39 -63 0
4 58 -8 0
-56 67 61 0
-63 51 16 0
-15 -64 20 0
57 48 25 0
37 -69 66 0
-31 -57 46 0
61 36 54 0
13 16 65 0
-61 -68 -41 0
-65 47 70 0
-11 67 -56 0
-13 -51 36 0
-43 5 -47 0
4 -49 10 0
54 -24 -31 0
-3 15 5 0
66 57 41 0
17 -45 46 0
6 34 51 0
1 -25 -27 0
20 -22 32 0
15 30 12 0
-3 -55 27 0
-56 -13 57 0
-39 7 -32 0
43 31 -59 0
-17 64 8 0
-29 69 -45 0
-68 53 23 0
-25 50 -48 0
-70 -28 51 0
-4 -53 -70 0
59 63 -10 0
51 -31 -61 0
-43 -45 -29 0
39 3 -41 0
52 50 68 0
69 70 63 0
30 26 -7 0
-33 27 -43 0
27 30 -53 0
44 12 -62 0
43 46 -33 0
51 18 -16 0
-2 67 -3 0
29 -45 18 0
26 4 11 0
32 -55 38 0
23 -61 22 0
-4 -10 22 0
-19 45 -27 0
-30 -59 -44 0
-45 46 -44 0
-46 -13 -18 0
-41 -68 -15 0
64 -17 3 0
56 41 27 0
-28 21 -26 0
-54 20 -32 0
-1 34 33 0
13 50 31 0
-32 -51 18 0
6 16 -17 0
-53 52 -14 0
21 -41 -8 0
-49 -4 -25 0
-23 -59 7 0
-15 20 23 0
-36 -30 -5 0
48 -51 54 0
6 46 57 0
25 -28 56 0
50 -40 -51 0
-59 48 -64 0
-47 -2 -36 0
-57 -38 -13 0
-50 -3 -64 0
-28 53 -3 0
50 -60 -16 0
13 60 -55 0
-54 -33 -16 0
-60 24 -46 0
70 -5 2 0
66 11 -56 0
1 -58 46 0
-48 -4 -12 0
20 48 63 0
7 -53 50 0
-60 -51 28 0
8 -47 24 0
64 11 54 0
-39 44 18 0
49 61 36 0
36 -58 19 0
1 50 52 0
10 19 51 0
16 56 -21 0
-23 -12 -9 0
17 -21 45 0
-27 16 67 0
47 -37 12 0
27 -44 -67 0
58 48 -27 0
6 63 -33 0
-54 -56 34 0
61 10 4 0
-15 -53 -6 0
55 62 26 0
-47 61 70 0
14 31 34 0
29 -44 39 0
54 44 35 0
29 -5 14 0
62 -7 -26 0
