p cnf 70 310
57 -11 -68 0
60 32 -49 0
-14 59 17 0
-56 -12 -35 0
-36 -35 -20 0
-63 -39 47 0
-19 -31 32 0
-17 51 29 0
-65 -25 -22 0
-26 -12 50 0
-36 7 10 0
-4 54 -10 0
24 -51 -34 0
-45 2 -17 0
18 -35 -5 0
64 -34 47 0
-66 35 2 0
-2 -65 -55 0
-31 30 -25 0
-27 47 58 0
-53 -22 -35 0
-28 6 -2 0
28 -46 43 0
-26 31 61 0
-62 -27 -7 0
-53 -43 65 0
50 57 33 0
56 37 45 0
-49 40 -61 0
41 70 -67 0
56 -57 -60 0
51 21 -25 0
7 -66 -44 0
-25 -58 -68 0
-62 -27 58 0
-2 15 -35 0
-15 40 57 0
30 50 -10 0
-40 51 -23 0
62 -18 -39 0
43 -18 58 0
13 36 -8 0
53 34 -27 0
11 -54 8 0
-28 38 -16 0
31 66 64 0
8 68 63 0
-61 -4 20 0
21 -5 -6 0
39 15 1 0
17 -28 -59 0
28 29 -25 0
6 -26 40 0
33 -57 -42 0
-67 -19 -4 0
-54 -14 69 0
4 -52 10 0
40 9 54 0
-44 -9 -49 0
-69 -47 16 0
67 53 -20 0
-8 41 22 0
55 -15 22 0
-67 -17 70 0
-11 45 -43 0
43 1 -32 0
-11 -28 -27 0
-52 -45 51 0
25 -4 -28 0
9 58 60 0
32 -12 -50 0
-29 -56 34 0
-38 48 -59 0
63 -15 -59 0
48 60 15 0
61 -27 56 0
28 -7 -1 0
28 11 -40 0
10 46 -59 0
68 -42 -10 0
59 -12 -31 0
62 26 5 0
67 -25 61 0
65 4 -2 0
45 39 -66 0
31 32 -2 0
-55 -11 -30 0
-54 -38 32 0
-53 -56 -49 0
50 15 -48 0
35 10 -26 0
5 -4 -32 0
-62 57 41 0
-25 38 -42 0
3 60 -65 0
-15 -59 -34 0
-15 43 51 0
59 -14 -54 0
-63 -2 -9 0
-8 47 5 0
-5 -53 -67 0
-30 45 -7 0
-13 -39 36 0
49 -44 68 0
-16 -5 3 0
64 -65 -13 0
49 19 -32 0
-57 -16 68 0
-14 -63 42 0
9 58 -52 0
-70 -47 -5 0
-20 7 14 0
-65 4 -17 0
14 -26 -50 0
51 -10 4 0
-68 32 -33 0
62 -41 -59 0
-36 -53 12 0
-10 26 52 0
19 64 -61 0
-18 -15 21 0
-29 27 -70 0
-3 -54 -58 0
7 -11 -25 0
49 48 -50 0
64 18 47 0
5 31 -1 0
-26 -47 16 0
50 9 -65 0
-25 40 53 0
17 -42 40 0
-25 57 -47 0
17 44 15 0
-12 8 -55 0
-66 16 33 0
60 49 35 0
-11 32 -49 0
63 50 -27 0
-22 51 3 0
19 53 -65 0
40 -56 -17 0
-8 -26 2 0
-13 -36 37 0
12 3 -26 0
-62 60 -32 0
-15 -20 21 0
11 -44 -68 0
-2 44 -59 0
20 51 58 0
-48 11 -27 0
37 -35 7 0
69 24 49 0
15 13 -64 0
-6 -11 1 0
45 -34 -39 0
-39 -37 -61 0
36 2 -30 0
35 -53 22 0
25 -40 66 0
-65 -54 67 0
-60 -58 -6 0
42 48 -64 0
6 -12 45 0
37 28 61 0
60 -6 48 0
-26 -51 63 0
-3 66 -41 0
53 -11 55 0
-50 30 55 0
-20 -10 -8 0
-41 -52 40 0
16 7 10 0
5 -65 64 0
-27 -70 7 0
40 -21 -57 0
33 -46 -24 0
8 7 13 0
-1 55 49 0
-6 64 -29 0
-46 -45 41 0
47 -64 2 0
-56 13 31 0
18 68 -31 0
-5 68 36 0
64 63 54 0
-13 -7 -45 0
-6 -54 22 0
34 6 -8 0
-31 -70 58 0
-22 -25 31 0
17 -16 4 0
45 -50 -61 0
23 -26 -39 0
-37 23 4 0
26 -28 -1 0
-39 -66 45 0
36 63 -28 0
8 -37 -3 0
-19 -61 18 0
-67 -4 -65 0
-28 69 -33 0
10 -54 -22 0
9 -49 69 0
66 45 49 0
52 28 56 0
10 -42 23 0
-20 68 23 0
48 -39 59 0
47 5 -43 0
11 43 29 0
-25 -46 67 0
66 -19 -16 0
14 31 -5 0
-35 -52 -15 0
-24 69 -13 0
6 23 48 0
-36 -29 47 0
61 -21 27 0
4 59 24 0
-57 11 28 0
-57 59 5 0
58 -68 -35 0
45 47 23 0
24 -60 -11 0
12 29 30 0
-28 -61 -31 0
53 52 -14 0
-29 -60 62 0
-49 -26 -20 0
-66 -65 58 0
31 43 -50 0
-15 63 41 0
-16 -14 -4 0
-23 62 44 0
-28 61 26 0
-70 -50 62 0
51 16 -12 0
17 -54 27 0
-59 32 -45 0
-33 38 4 0
58 -22 -24 0
3 40 44 0
54 -67 31 0
11 44 69 0
-10 -48 50 0
-29 -7 57 0
64 46 17 0
-47 -67 68 0
-3 -66 -12 0
32 -37 -39 0
7 36 55 0
-65 -6 41 0
-3 56 4 0
70 -48 -35 0
40 -24 43 0
32 46 36 0
-30 -59 36 0
31 -38 -42 0
36 -43 65 0
-7 40 45 0
57 69 20 0
-56 27 2 0
54 -51 -12 0
70 58 43 0
36 -64 -58 0
-40 9 -12 0
30 43 34 0
-46 -5 -48 0
62 -26 40 0
62 -58 53 0
-67 -54 21 0
11 50 -49 0
-22 56 -6 0
68 -66 32 0
-45 56 49 0
19 15 66 0
55 -50 -38 0
31 -56 -35 0
-55 57 43 0
62 -18 -67 0
64 35 -9 0
-63 -52 21 0
7 -32 27 0
37 19 -8 0
-65 61 67 0
-67 -18 9 0
-31 -40 -38 0
38 -45 11 0
-19 26 65 0
15 -59 -39 0
-37 61 57 0
-65 -70 -53 0
57 36 -7 0
-26 8 50 0
-11 9 27 0
-41 -70 -34 0
47 56 35 0
-37 -1 -65 0
59 62 41 0
-55 5 -32 0
30 5 -58 0
-26 60 18 0
28 65 61 0
62 15 45 0
-60 -9 54 0
4 -51 53 0
26 37 -3 0
-8 -20 -44 0
-51 48 13 0
-47 -43 14 0
