p cnf 70 310
9 37 -66 0
-50 -69 -53 0
9 70 1 0
-68 -70 -8 0
-53 35 -10 0
5 -19 -61 0
56 27 57 0
-53 -11 60 0
-61 -31 -59 0
-49 30 -46 0
35 42 28 0
52 20 -25 0
24 10 -16 0
-4 8 -49 0
14 -9 -13 0
-55 62 30 0
68 -43 -59 0
66 -52 45 0
55 -7 6 0
-42 -16 -7 0
-8 21 70 0
42 -3 -63 0
-27 -34 -3 0
46 69 -64 0
-8 -36 3 0
61 29 38 0
-5 -42 48 0
-19 -54 -68 0
-7 38 64 0
-53 65 -35 0
32 7 -35 0
-50 -48 -25 0
-17 -9 2 0
-9 52 -57 0
27 52 9 0
42 -35 36 0
8 -36 -58 0
-5 65 14 0
65 -14 -19 0
46 11 13 0
32 -31 -35 0
53 -47 -37 0
3 61 -4 0
32 -1 -50 0
31 18 -36 0
-45 60 -63 0
19 -70 -32 0
50 -25 29 0
19 -32 70 0
1 -24 -16 0
53 69 -19 0
24 -12 1 0
44 62 63 0
32 -35 -66 0
58 -40 -48 0
26 -66 41 0
18 45 62 0
-52 -24 -21 0
-20 47 15 0
44 63 57 0
-1 2 12 0
-8 -65 9 0
-49 -57 58 0
-5 36 1 0
-22 53 66 0
1 51 -70 0
56 -67 -31 0
33 -44 -42 0
-37 40 16 0
-23 51 -65 0
-58 -11 -48 0
44 -42 60 0
22 -48 -28 0
8 -1 -43 0
16 56 -31 0
12 -21 -15 0
-13 -45 -21 0
-50 36 1 0
53 54 20 0
49 70 23 0
4 35 22 0
42 9 -43 0
46 32 -41 0
-22 -26 39 0
-64 55 -23 0
-29 -36 6 0
-18 1 -61 0
20 43 -31 0
1 -7 -17 0
10 -30 29 0
-1 -63 -40 0
5 1 50 0
-19 22 -65 0
64 -55 36 0
-57 25 14 0
15 37 50 0
-66 -67 -17 0
-58 69 -14 0
66 -50 -6 0
51 59 8 0
-2 48 -8 0
-37 -18 3 0
-21 50 13 0
53 43 44 0
-69 -7 -34 0
49 16 50 0
-48 -36 29 0
25 -7 12 0
-18 -54 40 0
-57 -23 37 0
-59 -62 -53 0
-48 -60 63 0
-70 -20 -21 0
36 -48 -64 0
-17 70 -38 0
23 63 -2 0
-66 16 36 0
-45 63 33 0
4 -39 -47 0
1 -56 70 0
-29 -60 -14 0
-56 -29 -42 0
40 33 52 0
36 14 -69 0
49 -57 2 0
-20 35 -28 0
-70 27 -3 0
33 35 -11 0
-44 -3 -42 0
-54 18 33 0
49 4 20 0
-24 55 -18 0
-17 63 26 0
-11 21 -41 0
31 15 30 0
-1 -61 43 0
-6 -59 31 0
32 18 22 0
20 -42 -70 0
-34 -58 21 0
-23 45 -52 0
11 2 -58 0
15 -12 -65 0
27 -34 -36 0
30 34 -55 0
29 -69 -58 0
-56 -21 -19 0
27 -25 -50 0
-19 -17 68 0
-9 -43 51 0
56 -48 -25 0
29 -20 54 0
29 -28 -24 0
47 -5 18 0
-15 -20 18 0
-16 9 -12 0
61 -9 -21 0
-11 69 29 0
63 31 -26 0
9 -32 -53 0
18 -33 -25 0
-3 -30 57 0
16 -12 58 0
31 -38 -12 0
-30 39 43 0
9 -68 -38 0
10 -12 -17 0
33 -10 -5 0
-13 47 -2 0
-22 -63 5 0
-53 -56 31 0
55 60 36 0
-32 -61 -8 0
-5 -4 -8 0
-5 -8 12 0
-42 -45 -64 0
48 -58 -37 0
25 40 7 0
-3 -61 -52 0
9 -57 70 0
16 -70 -35 0
60 -12 27 0
-39 61 -65 0
-59 -69 70 0
1 70 66 0
6 -12 1 0
-63 -26 56 0
36 59 -68 0
-7 -50 39 0
56 61 -57 0
42 13 11 0
-68 26 3 0
-65 -61 56 0
12 -49 35 0
-50 40 -65 0
-29 42 40 0
41 -15 6 0
16 69 38 0
12 -30 -69 0
62 64 49 0
48 25 -60 0
45 40 44 0
59 -35 14 0
40 -10 -41 0
66 12 -14 0
41 51 13 0
-11 1 -39 0
9 20 3 0
-20 7 -48 0
-67 12 -45 0
-27 -69 -22 0
-38 70 19 0
43 59 -23 0
45 63 -4 0
-38 43 -30 0
4 40 64 0
58 34 5 0
-3 -60 -33 0
-29 -32 63 0
7 30 26 0
37 4 -64 0
-67 49 -18 0
-30 11 47 0
-56 48 70 0
30 50 38 0
-21 58 -42 0
-33 14 27 0
46 9 18 0
12 7 64 0
47 -45 59 0
61 -46 6 0
19 -27 23 0
-63 70 39 0
32 21 52 0
-69 38 8 0
38 46 -33 0
9 -7 -10 0
54 21 -48 0
-29 -65 49 0
-44 -37 -8 0
-38 49 51 0
61 39 -15 0
1 -48 69 0
15 -50 12 0
-10 -47 38 0
58 49 -35 0
-21 -17 4 0
31 27 -46 0
-69 15 61 0
-70 -68 -26 0
-4 9 -30 0
-48 -61 40 0
-62 9 -59 0
10 23 -2 0
52 -9 70 0
-43 -37 64 0
41 25 14 0
39 64 -63 0
57 -34 23 0
-24 12 -3 0
33 68 69 0
-47 -21 20 0
39 29 65 0
45 -11 63 0
28 61 -5 0
64 63 -3 0
-18 7 -44 0
-58 -26 -22 0
-20 51 -34 0
-29 65 -63 0
17 -3 -6 0
10 -60 -21 0
41 -7 42 0
32 -50 4 0
68 -12 -19 0
-21 54 35 0
40 -10 13 0
-47 -65 -58 0
-37 -1 50 0
-32 -4 41 0
49 11 -62 0
39 33 62 0
70 -33 -15 0
-41 -30 -25 0
61 -36 -13 0
5 -33 20 0
-20 -41 -49 0
49 -55 31 0
55 66 33 0
35 -29 -60 0
-19 -52 -16 0
64 -66 40 0
-10 16 50 0
-35 20 -69 0
65 46 61 0
20 25 1 0
-59 51 -20 0
57 -6 47 0
-27 55 29 0
70 3 31 0
30 -56 47 0
-48 -26 32 0
2 -40 7 0
-5 20 -10 0
52 -62 56 0
70 50 -16 0
-66 42 33 0
-57 -33 -56 0
68 19 10 0
-23 34 -53 0
