p cnf 70 275
-4 -48 -9 0
-30 55 -28 0
-66 -14 -26 0
55 -64 -14 0
63 50 17 0
4 -18 64 0
17 -45 -70 0
-23 -68 -64 0
-52 53 -70 0
5 -59 52 0
-33 16 20 0
25 -41 27 0
-30 49 25 0
45 37 54 0
17 9 -19 0
7 42 -41 0
1 -46 -66 0
-18 40 43 0
1 48 -17 0
61 -17 4 0
56 3 -30 0
-59 -19 13 0
-38 53 31 0
31 24 -14 0
-17 -22 -11 0
18 45 6 0
-64 11 57 0
40 -22 30 0
-36 -29 38 0
48 -13 60 0
58 32 36 0
-2 11 65 0
66 47 -59 0
59 -58 38 0
30 1 22 0
58 45 -13 0
-32 7 63 0
-38 2 48 0
8 -39 53 0
-24 13 22 0
42 -36 -33 0
-40 68 -65 0
9 -45 1 0
-44 -8 -47 0
19 70 48 0
23 22 -27 0
3 16 -45 0
2 68 62 0
-62 -18 -30 0
70 -32 17 0
-52 -5 32 0
12 32 -47 0
53 21 33 0
-3 -67 38 0
-22 7 -5 0
62 45 -56 0
55 -57 -62 0
-52 -42 51 0
-61 -62 39 0
25 -21 41 0
-51 10 -48 0
-70 41 20 0
62 -5 -15 0
66 -29 -43 0
5 -45 2 0
37 -52 49 0
58 -6 19 0
-54 7 3 0
-53 -23 -25 0
42 -32 -46 0
-18 37 56 0
46 -52 -41 0
-52 -57 -61 0
5 -23 17 0
44 47 64 0
16 -52 -9 0
-65 53 19 0
-8 25 46 0
7 -62 -16 0
-58 60 22 0
14 33 27 0
32 51 1 0
6 -63 48 0
7 43 60 0
59 -45 -5 0
1 41 47 0
-17 27 -18 0
-67 -3 -23 0
35 -9 64 0
2 3 46 0
-19 51 -16 0
14 -63 -3 0
43 70 -54 0
37 -5 10 0
-13 -17 -34 0
-50 56 -51 0
-30 -41 65 0
-31 39 70 0
12 -37 4 0
4 60 12 0
-16 37 -26 0
14 16 -46 0
-27 5 67 0
60 -14 2 0
-16 -55 10 0
-9 35 -51 0
43 6 -9 0
33 -1 -10 0
-55 -34 12 0
-63 -53 -55 0
47 50 15 0
43 20 24 0
5 13 -39 0
35 -30 40 0
-5 -19 -26 0
-7 42 -21 0
-14 6 -29 0
11 28 20 0
46 20 -35 0
69 -32 -59 0
-13 65 14 0
-46 -5 69 0
-1 -39 -9 0
-6 47 19 0
10 36 45 0
-66 -15 -1 0
-70 -24 59 0
66 -60 -18 0
65 -2 -4 0
-12 -25 44 0
32 61 -24 0
-60 41 -5 0
28 69 -53 0
-5 -45 -60 0
30 -66 -25 0
29 53 23 0
-58 68 -27 0
54 -27 70 0
-38 1 -9 0
31 3 -25 0
13 28 2 0
-26 -67 -20 0
-69 59 -45 0
54 26 -48 0
-21 50 -34 0
-9 -20 -54 0
2 -21 -3 0
62 16 51 0
37 55 -24 0
66 -9 7 0
-37 20 54 0
14 56 -16 0
-5 -34 -49 0
42 -43 41 0
7 -17 -18 0
23 15 24 0
-42 12 -26 0
-39 8 44 0
-39 -44 55 0
40 -10 5 0
29 25 -17 0
68 -66 -34 0
-60 -62 35 0
12 61 9 0
27 30 2 0
50 3 46 0
-7 64 52 0
-46 -2 -29 0
44 30 56 0
-70 33 38 0
-64 68 58 0
46 15 44 0
-34 3 52 0
-12 -44 -63 0
20 -57 -21 0
-58 -14 -30 0
-38 -13 22 0
22 -36 14 0
-5 -1 63 0
-46 -24 47 0
49 27 -57 0
-49 41 -13 0
15 18 -32 0
24 -61 -38 0
-49 -62 -2 0
45 54 -33 0
-42 24 -34 0
-17 -65 64 0
23 17 -26 0
47 -64 70 0
-5 -49 28 0
-59 -46 -5 0
-63 -38 -56 0
15 -44 -30 0
-27 45 -21 0
-47 11 -24 0
-33 15 26 0
27 -51 -18 0
33 -52 42 0
25 -14 -31 0
38 -28 -14 0
-37 -39 49 0
-10 -40 54 0
-48 -3 -16 0
67 -66 28 0
-19 46 -8 0
9 15 -14 0
27 -6 5 0
-20 24 -50 0
-24 -6 -59 0
-21 20 -30 0
-31 10 4 0
18 -19 27 0
-68 -62 41 0
68 38 -63 0
-53 -29 -11 0
-42 -33 18 0
15 44 10 0
-7 -65 46 0
-25 -6 -16 0
8 -18 37 0
-15 17 -6 0
-6 41 67 0
43 12 -23 0
26 57 3 0
-2 50 -23 0
-32 70 1 0
-47 9 48 0
26 68 35 0
-34 -41 9 0
-35 33 39 0
15 -28 30 0
-43 -1 54 0
70 59 -56 0
50 14 -46 0
31 -25 -59 0
5 -28 25 0
-58 -43 18 0
-52 1 -39 0
2 -58 27 0
13 -51 -59 0
-58 -49 -15 0
-45 -24 -12 0
11 -45 67 0
-19 -2 -63 0
65 15 -26 0
61 35 -70 0
-58 9 64 0
-38 13 -4 0
-57 11 -25 0
-57 -10 -48 0
19 -47 60 0
68 26 31 0
-5 3 -19 0
-6 28 -54 0
35 27 -20 0
-55 5 52 0
-20 65 26 0
-3 4 -63 0
-53 -31 37 0
-14 13 40 0
1 41 -34 0
-58 25 65 0
-20 -42 -27 0
15 6 13 0
-7 17 36 0
-56 -42 -43 0
-18 62 23 0
15 65 43 0
63 70 36 0
41 30 33 0
19 24 63 0
-63 -28 -46 0
7 -35 -31 0
-42 -54 40 0
