p cnf 70 260
-66 -42 -41 0
64 23 70 0
-8 36 -21 0
-65 23 24 0
21 55 11 0
44 62 -33 0
-25 -57 45 0
-45 14 -51 0
15 -62 4 0
19 60 63 0
23 36 -41 0
52 -64 -18 0
41 59 28 0
-51 34 17 0
-55 -63 -30 0
4 15 -33 0
6 1 40 0
-49 27 21 0
-13 6 -49 0
-17 3 65 0
49 -65 -7 0
52 -38 -16 0
-55 -50 -12 0
-39 -47 59 0
-30 -26 -69 0
-49 -30 -17 0
20 -24 -48 0
4 -9 63 0
-40 -36 -10 0
64 -38 48 0
-60 12 39 0
33 38 -18 0
-20 2 -64 0
-30 68 -19 0
17 66 65 0
-27 67 13 0
-48 19 30 0
19 27 -4 0
35 -34 12 0
-7 54 14 0
-7 -64 -33 0
-43 -60 20 0
-50 -24 -33 0
44 -8 -60 0
-57 -22 1 0
-34 -5 -29 0
13 -22 -16 0
-30 24 -15 0
-62 -64 -49 0
-7 -48 18 0
-1 -21 14 0
-56 -46 42 0
5 53 26 0
-47 18 29 0
-56 -68 -58 0
24 -56 22 0
-20 53 60 0
-16 -49 -55 0
27 2 51 0
24 -14 -8 0
43 8 19 0
46 -58 -22 0
12 52 -14 0
-69 -43 65 0
-17 -3 -54 0
-32 -49 46 0
61 58 21 0
-51 -25 29 0
-54 -48 40 0
-55 21 28 0
16 -8 -51 0
-40 49 -68 0
26 -5 -47 0
-13 3 33 0
-58 37 48 0
51 34 53 0
-39 -67 13 0
-64 -2 54 0
43 -42 -69 0
15 52 13 0
-20 4 -35 0
34 21 -50 0
-14 -29 16 0
-49 -7 -10 0
-58 -11 -43 0
-70 -1 -18 0
7 10 -18 0
-17 -19 -26 0
51 -42 41 0
67 -28 -62 0
-34 52 -42 0
69 65 12 0
15 -35 13 0
23 49 35 0
-30 3 60 0
-9 -18 -54 0
-39 -62 24 0
26 2 68 0
70 -47 -29 0
7 -23 -59 0
18 -9 -4 0
-50 -13 -29 0
-48 20 -53 0
-41 43 6 0
-26 67 -51 0
-53 -27 6 0
-59 8 12 0
67 40 -15 0
4 35 15 0
-54 -19 29 0
33 19 -60 0
-67 -38 -20 0
54 -31 26 0
6 65 2 0
-35 -64 -63 0
-30 70 -23 0
-37 41 -11 0
50 -64 48 0
52 -28 16 0
10 13 18 0
14 -40 3 0
-69 -35 -62 0
-65 -27 24 0
-2 -50 -59 0
61 37 24 0
25 47 -38 0
-66 -48 -70 0
-62 34 -52 0
4 19 -32 0
48 -50 -23 0
-4 43 5 0
-67 -40 -9 0
55 20 44 0
40 20 -19 0
-20 -34 -10 0
-59 12 10 0
37 -55 27 0
38 59 -27 0
-46 -64 7 0
43 -55 65 0
-37 24 -6 0
-37 -69 15 0
2 12 -25 0
66 50 9 0
1 58 40 0
22 26 -68 0
26 44 -30 0
-54 16 50 0
18 -14 -36 0
53 32 -19 0
-67 -66 33 0
21 17 20 0
65 -5 -68 0
-42 -69 46 0
8 66 -42 0
-40 -27 -10 0
-66 54 62 0
-52 70 -40 0
-23 18 -6 0
-62 52 13 0
-12 -35 -33 0
56 14 59 0
-21 -24 37 0
-49 -46 25 0
-28 -58 -66 0
9 -28 66 0
-11 -21 3 0
4 -67 -16 0
-35 -47 14 0
-67 51 30 0
24 12 50 0
-39 31 -8 0
55 -40 36 0
49 70 -41 0
29 -65 36 0
-5 -39 7 0
-44 -30 -26 0
-9 31 -64 0
44 7 60 0
65 11 13 0
-66 67 -54 0
-24 66 -8 0
68 56 13 0
36 1 4 0
21 -1 16 0
31 39 -28 0
-20 65 49 0
-4 -52 -44 0
56 -5 -49 0
47 35 21 0
-1 9 6 0
-30 8 -31 0
-1 12 -19 0
-46 -64 -47 0
-44 65 -1 0
9 -8 -22 0
32 20 -33 0
-50 -57 15 0
-59 20 -9 0
69 16 -4 0
-8 -38 47 0
-32 22 -39 0
4 -10 7 0
-24 27 -65 0
-12 49 -17 0
55 -27 -15 0
-9 30 -62 0
18 -10 -39 0
59 22 4 0
45 -8 61 0
-19 -34 6 0
-26 -7 48 0
32 -1 46 0
66 -51 -34 0
-49 -19 -44 0
57 -2 -34 0
-38 19 32 0
-7 47 10 0
34 41 63 0
51 15 27 0
34 -38 -64 0
49 50 8 0
-62 63 38 0
-6 -7 2 0
45 -34 26 0
39 53 21 0
25 62 -20 0
21 12 3 0
-67 -1 22 0
55 5 39 0
52 7 25 0
27 -57 5 0
-2 -28 -21 0
29 -8 -17 0
52 26 44 0
-26 -24 63 0
-14 65 -64 0
7 -44 -62 0
-42 -1 -24 0
-62 -34 39 0
-49 -27 -16 0
-7 -23 -6 0
-39 4 -18 0
-4 52 60 0
17 -9 37 0
-67 -22 -6 0
52 -26 -35 0
47 -13 33 0
-55 -11 -37 0
52 -46 -33 0
-40 30 6 0
-31 24 -10 0
-26 30 -40 0
52 -43 54 0
31 -41 51 0
43 -47 -29 0
-19 25 -48 0
-63 18 4 0
6 22 20 0
-67 -6 -46 0
