p cnf 70 265
-66 69 20 0
10 22 42 0
-65 -61 -67 0
-53 -7 -63 0
-45 -54 -61 0
-9 -66 68 0
7 15 46 0
46 -20 -37 0
39 19 24 0
-40 16 29 0
2 12 67 0
-23 25 54 0
-8 -27 6 0
-57 -19 -12 0
-7 17 -23 0
-37 29 -12 0
20 -23 14 0
41 -11 -15 0
50 26 68 0
-67 -34 27 0
-22 31 -58 0
43 28 33 0
14 2 13 0
34 -47 -5 0
38 22 5 0
18 69 -48 0
-58 -54 -70 0
1 10 -41 0
-12 -2 66 0
59 24 -61 0
38 47 -63 0
-31 -18 28 0
-22 -20 -31 0
-65 68 34 0
50 53 19 0
57 -53 -41 0
-55 -18 34 0
34 63 22 0
36 31 29 0
-29 -16 18 0
20 52 33 0
-53 -22 -62 0
45 -14 56 0
-6 56 59 0
33 43 -24 0
35 -31 -49 0
24 -6 -47 0
38 -60 35 0
-26 -58 2 0
22 -27 -11 0
35 -21 -14 0
23 66 -39 0
-39 -55 -2 0
-6 35 -54 0
63 13 -65 0
60 -14 -45 0
-68 2 -29 0
69 50 20 0
58 53 -69 0
29 -50 -31 0
-15 41 53 0
-40 -14 -11 0
-29 69 52 0
-15 -34 37 0
-9 -15 47 0
42 -2 38 0
56 22 45 0
-37 42 -61 0
5 -10 -57 0
49 -43 -62 0
14 -60 64 0
9 39 -20 0
-51 37 45 0
-15 -26 65 0
-12 28 68 0
-31 -65 -39 0
-48 61 -10 0
-14 4 7 0
-44 12 7 0
16 62 -50 0
-39 62 61 0
14 -12 35 0
-49 37 4 0
-55 -1 34 0
36 -3 2 0
-49 47 -38 0
37 60 54 0
67 34 28 0
43 2 -5 0
-60 9 32 0
35 -42 5 0
12 -60 55 0
31 -46 24 0
-16 -33 -69 0
20 41 -25 0
-50 -23 -19 0
64 9 68 0
-43 34 -44 0
-55 8 -53 0
-28 -41 12 0
-69 16 -6 0
-50 -66 -23 0
-12 -60 23 0
43 -41 53 0
-23 37 4 0
61 -4 51 0
-41 5 34 0
39 -54 -23 0
21 61 64 0
-46 49 -27 0
-35 -38 5 0
-30 -8 -2 0
-40 -4 -50 0
63 42 -15 0
-28 -38 -10 0
-38 -67 -33 0
-54 -12 67 0
-10 26 49 0
41 42 54 0
48 -68 -70 0
23 27 -24 0
-29 17 26 0
26 -8 57 0
4 26 -46 0
68 50 -30 0
60 47 -37 0
-55 17 46 0
-11 -29 -57 0
9 45 -53 0
-45 -20 -54 0
-10 -64 -29 0
54 -13 49 0
12 -58 11 0
-1 -53 -9 0
-61 26 -41 0
42 23 -2 0
-55 12 29 0
-27 -23 -39 0
-6 38 -43 0
26 7 54 0
50 -13 -33 0
7 55 58 0
42 -63 46 0
-5 -67 -62 0
41 -42 64 0
-3 -51 54 0
54 46 16 0
45 14 -32 0
-20 29 -26 0
-34 10 17 0
4 -61 47 0
-16 1 6 0
-4 -60 52 0
-34 -49 21 0
-29 7 6 0
-63 52 28 0
-33 58 60 0
48 -70 26 0
24 -26 -40 0
-18 -35 7 0
69 -36 15 0
28 -55 17 0
41 6 -11 0
28 -50 24 0
34 23 -29 0
-30 -54 -36 0
-24 -51 -15 0
51 56 18 0
10 -3 9 0
43 -10 -26 0
-52 -50 18 0
11 33 -15 0
15 -23 56 0
-29 28 9 0
25 -14 68 0
49 -44 -36 0
41 7 -27 0
38 -20 -43 0
-63 -66 -40 0
-4 -6 51 0
-69 -27 -37 0
18 67 -70 0
37 -48 -57 0
-9 65 -70 0
-10 27 56 0
25 -29 24 0
21 -53 -35 0
16 -63 -59 0
-12 -1 -62 0
61 -9 -3 0
43 -38 -16 0
-42 -63 -4 0
33 -53 8 0
54 -29 50 0
48 13 -5 0
-51 -57 -25 0
10 -53 21 0
6 56 -21 0
-36 -26 -38 0
-19 -63 16 0
-19 39 70 0
-46 -57 64 0
-60 4 40 0
-18 68 -4 0
55 58 22 0
-15 -38 -54 0
-28 5 -29 0
-20 70 33 0
58 -51 -24 0
29 -28 2 0
-63 -40 34 0
-28 -8 -1 0
18 -59 62 0
-68 -14 -63 0
68 13 40 0
-35 -25 -39 0
-11 -52 39 0
-48 -66 -41 0
-19 44 53 0
14 47 13 0
9 -26 -48 0
40 -29 31 0
-53 29 60 0
24 46 37 0
-67 -60 -20 0
8 -56 -65 0
-64 11 -36 0
-67 39 58 0
49 -39 -11 0
3 -37 27 0
-20 38 -50 0
-38 35 16 0
59 -54 -14 0
52 -33 -56 0
41 11 52 0
-55 16 61 0
-50 -35 58 0
3 18 64 0
49 -14 -63 0
-59 -47 -51 0
33 37 15 0
36 40 -14 0
-28 -60 -23 0
-48 -54 -63 0
49 -1 -60 0
42 -39 -26 0
-34 -26 12 0
-4 39 7 0
-28 16 -56 0
46 34 -5 0
26 12 -19 0
-20 45 -32 0
-35 -60 15 0
-11 1 18 0
32 37 -53 0
-58 61 64 0
40 54 -31 0
33 59 -30 0
-12 -62 -17 0
-47 -26 69 0
50 -23 63 0
-60 -62 -14 0
-27 -59 6 0
28 69 -4 0
-35 32 -44 0
