p cnf 70 290
-51 7 55 0
-19 60 56 0
44 -13 -5 0
67 55 27 0
15 -45 -34 0
61 22 -59 0
-1 -70 53 0
-49 19 -4 0
34 13 -6 0
-51 -21 58 0
66 -38 70 0
-47 23 19 0
-24 50 -42 0
-26 -54 -24 0
52 39 -22 0
12 -47 -14 0
-42 -58 -55 0
61 -52 -45 0
-17 -64 -61 0
-5 -20 52 0
48 -65 59 0
-43 -65 -45 0
49 -36 -69 0
23 15 45 0
33 30 42 0
-67 39 55 0
40 -29 -65 0
27 55 -53 0
46 1 9 0
-22 47 67 0
-40 -28 -43 0
-15 16 -35 0
-4 -26 10 0
-33 43 2 0
20 -19 52 0
-11 -46 65 0
-57 5 -45 0
60 -17 -3 0
4 35 -40 0
-1 -62 -20 0
56 -61 -16 0
-25 51 -20 0
19 18 -43 0
6 39 41 0
42 30 -59 0
-13 12 30 0
-28 52 66 0
-36 64 33 0
7 49 57 0
8 -27 -7 0
9 34 -7 0
-56 39 -4 0
-67 -18 30 0
35 1 40 0
-33 6 -34 0
-13 29 53 0
-19 -22 -69 0
35 19 2 0
-11 -28 35 0
43 -66 -8 0
-17 46 -43 0
42 31 55 0
-36 18 64 0
-46 60 -51 0
37 -58 -46 0
67 -60 -43 0
58 31 66 0
48 -56 -32 0
-48 -7 19 0
-34 46 52 0
-8 57 37 0
6 8 -46 0
66 -16 -55 0
-51 -14 16 0
38 48 -41 0
47 69 -51 0
29 -34 49 0
56 52 -27 0
-63 23 -70 0
52 -41 -45 0
20 14 -35 0
-56 -59 36 0
27 -41 -50 0
-69 -42 37 0
-10 -2 -42 0
-24 -50 -1 0
-66 60 61 0
68 23 -24 0
-43 -36 -53 0
1 29 12 0
39 2 -14 0
10 -36 46 0
52 -42 54 0
59 -67 -21 0
29 47 -25 0
-21 -32 25 0
-38 21 -70 0
-39 -49 -24 0
55 -19 -15 0
28 -70 -30 0
14 -5 -22 0
-35 -60 -61 0
17 20 -34 0
-30 -41 -64 0
-65 45 -25 0
40 27 49 0
-61 20 -30 0
-15 58 -12 0
20 32 59 0
36 -30 -52 0
13 -40 15 0
-32 -29 49 0
18 23 -51 0
32 46 36 0
-70 -64 4 0
-12 -53 19 0
36 -46 -18 0
-56 7 -32 0
-39 -56 4 0
3 -52 25 0
40 -70 -26 0
-22 39 15 0
-49 -40 -60 0
20 64 -3 0
-59 -39 -34 0
-66 47 -5 0
-9 4 3 0
-30 69 4 0
29 -13 -11 0
-6 -1 29 0
48 -23 -50 0
-57 27 -35 0
37 50 41 0
4 -63 -25 0
-12 -20 -18 0
-4 -24 37 0
51 9 6 0
-50 -6 -21 0
27 -29 -55 0
-15 54 -24 0
-30 -32 -41 0
2 60 15 0
31 35 46 0
20 60 45 0
13 -70 -28 0
-40 -43 -17 0
-32 -17 -25 0
46 7 45 0
-66 -59 31 0
-6 -60 -68 0
19 -22 -34 0
-45 38 -28 0
-20 61 -41 0
-20 -24 -61 0
30 -32 60 0
39 55 58 0
-9 11 -55 0
-18 24 34 0
49 -4 -12 0
7 -67 -25 0
32 -62 53 0
22 -12 58 0
25 53 -68 0
-58 -45 -23 0
30 63 -40 0
-58 22 -36 0
8 58 -5 0
35 -3 -67 0
-45 -18 -44 0
-3 -50 -53 0
18 -62 -57 0
10 -55 -67 0
-61 20 52 0
24 -31 69 0
-13 -10 -18 0
44 23 70 0
27 -59 -40 0
65 24 -29 0
-39 43 30 0
-21 53 46 0
33 -2 36 0
1 9 68 0
45 -33 -62 0
-45 33 32 0
28 -39 -3 0
56 23 -20 0
55 -31 -69 0
-43 -20 49 0
7 -54 -36 0
-50 30 -15 0
2 16 -48 0
-63 24 11 0
31 60 46 0
-29 -31 -8 0
-51 -31 -55 0
-61 15 44 0
61 -64 30 0
39 -7 34 0
53 -21 -7 0
37 -31 62 0
-42 -32 47 0
-29 44 21 0
49 41 -10 0
-44 70 37 0
-60 35 49 0
-37 42 -1 0
40 32 18 0
62 30 24 0
-9 14 40 0
-19 -66 16 0
9 -3 -55 0
60 -44 13 0
70 41 -14 0
-70 -49 53 0
-41 20 -62 0
-25 -56 -28 0
66 -62 38 0
31 12 4 0
19 -51 40 0
-62 64 -69 0
-21 36 -54 0
66 -11 -31 0
32 -39 13 0
-66 -57 3 0
37 39 -23 0
-64 -28 15 0
8 -52 -37 0
-24 17 -65 0
-27 12 -57 0
-6 29 64 0
-32 -59 10 0
-33 56 24 0
70 -49 62 0
-2 -21 -33 0
-41 28 -11 0
12 -49 -1 0
38 23 30 0
19 -67 29 0
-34 39 30 0
32 -14 53 0
26 -42 54 0
13 66 9 0
30 60 32 0
42 -5 49 0
-2 -60 11 0
-37 -67 -11 0
-47 -70 29 0
-17 64 -32 0
48 -25 46 0
-10 -53 4 0
-67 28 -27 0
-9 -48 55 0
-18 37 -68 0
-54 55 58 0
3 -18 33 0
-63 -11 32 0
20 47 10 0
33 -29 -18 0
10 52 -3 0
14 -3 54 0
62 55 28 0
34 8 23 0
-18 -30 -46 0
-58 -13 3 0
-70 -3 -35 0
-57 -1 -66 0
-18 35 -63 0
24 -44 -39 0
31 20 43 0
30 -56 21 0
-11 -52 -48 0
10 62 27 0
69 -30 -43 0
-10 -64 -21 0
19 17 3 0
-41 5 -9 0
19 -12 13 0
5 62 35 0
41 37 -46 0
60 38 -43 0
-1 -56 63 0
32 -33 -62 0
7 -26 35 0
-15 37 67 0
-58 61 -19 0
65 -23 -5 0
-50 1 -9 0
19 -31 52 0
55 -67 42 0
15 8 29 0
