p cnf 70 285
-5 59 -43 0
33 -47 32 0
-43 -31 60 0
-32 -45 52 0
-40 60 67 0
62 47 55 0
6 20 51 0
20 -35 -65 0
-49 44 60 0
24 -61 -66 0
1 -8 29 0
30 58 -54 0
-29 39 21 0
-61 70 -40 0
-58 -17 20 0
33 68 -31 0
18 -51 69 0
2 -39 20 0
-46 70 -20 0
-55 16 40 0
-35 -66 1 0
48 -62 20 0
-16 25 47 0
-67 59 -23 0
46 57 -38 0
-34 -4 -12 0
-53 -56 40 0
34 48 19 0
68 31 49 0
35 -62 -10 0
29 48 -49 0
48 35 70 0
63 68 -45 0
-32 2 11 0
-3 56 43 0
55 -2 44 0
-41 -26 30 0
58 28 11 0
-68 -44 -1 0
2 45 -13 0
-53 -18 -3 0
27 4 53 0
69 -14 -70 0
25 16 -17 0
-55 61 -36 0
-21 1 25 0
-65 43 -48 0
56 -2 -50 0
-48 7 41 0
-32 -25 -10 0
-65 54 -27 0
61 -42 19 0
-18 40 -36 0
68 -28 -59 0
39 4 -58 0
-15 -14 -36 0
-55 -52 -18 0
13 21 19 0
67 -66 54 0
44 61 -47 0
-52 47 -54 0
34 -32 -59 0
69 -10 -55 0
65 56 7 0
-51 -58 -41 0
-25 -43 -6 0
-55 -49 46 0
-22 25 -35 0
64 70 47 0
-10 -19 -15 0
5 -37 -15 0
59 69 -46 0
-25 4 24 0
44 -45 54 0
2 36 33 0
-22 -37 29 0
32 21 -40 0
31 46 -38 0
38 -46 31 0
28 40 -22 0
-54 62 -9 0
60 -54 36 0
-37 -42 -58 0
60 -45 14 0
5 23 13 0
-29 30 -41 0
34 -47 14 0
57 23 7 0
-28 -15 -53 0
24 13 14 0
50 62 -51 0
-25 -22 50 0
43 31 22 0
59 -64 55 0
62 -43 -11 0
2 8 26 0
-53 -66 43 0
-19 -58 -45 0
-13 -46 -54 0
-34 -18 10 0
-22 -36 64 0
66 46 -1 0
-61 25 -48 0
-11 -5 -7 0
-20 -24 -63 0
51 -35 19 0
63 66 -32 0
-66 -55 59 0
-35 -57 -32 0
-12 22 62 0
50 59 38 0
13 35 -63 0
62 11 -46 0
-13 -24 -23 0
11 64 22 0
-8 -11 23 0
-62 -10 -34 0
-25 30 -12 0
-65 67 -22 0
21 -42 16 0
-56 17 57 0
-31 -69 -50 0
-64 -40 -11 0
50 17 65 0
64 17 70 0
-69 -26 67 0
-25 -27 -48 0
18 37 58 0
32 10 -23 0
-33 67 -9 0
30 -46 -11 0
-48 -17 -61 0
-5 -40 -60 0
20 -53 15 0
67 13 -41 0
43 -28 16 0
56 37 -34 0
12 60 39 0
-40 -2 -38 0
-12 55 -42 0
-13 5 26 0
7 60 67 0
13 32 -25 0
47 -64 34 0
-2 45 -42 0
27 -65 46 0
-46 -17 -9 0
-15 -8 12 0
-52 11 59 0
-22 -62 -68 0
37 3 4 0
-40 54 -50 0
-60 63 -6 0
20 68 -60 0
-21 8 -68 0
-2 -25 -62 0
55 -63 45 0
-28 -39 12 0
-26 42 -18 0
-49 -45 1 0
-28 12 -50 0
58 -67 -10 0
-50 3 26 0
20 67 -41 0
-18 26 39 0
28 49 -30 0
-43 -44 -15 0
42 -38 -18 0
-20 -17 53 0
64 -27 -25 0
-19 -61 9 0
18 -1 -40 0
45 -59 -57 0
-50 6 3 0
7 -30 -52 0
29 28 -48 0
7 -35 28 0
-49 -1 2 0
33 -38 13 0
-33 -32 1 0
-13 -22 -2 0
-40 60 42 0
-44 55 -56 0
-50 -13 -22 0
-14 -68 -27 0
-47 43 -13 0
67 36 -20 0
-50 -67 41 0
48 -49 -54 0
16 -36 39 0
-41 52 1 0
-42 25 -27 0
63 -16 33 0
-46 50 -40 0
51 64 -65 0
-9 -42 61 0
-10 66 -65 0
35 70 55 0
-65 -14 -1 0
-58 55 -70 0
-44 55 -11 0
42 62 12 0
-32 51 37 0
29 43 -67 0
-45 -11 -29 0
51 -31 -29 0
-17 -57 -70 0
40 23 52 0
-12 -14 19 0
-7 -14 39 0
-70 28 32 0
24 -5 -9 0
53 4 27 0
-61 20 60 0
36 53 48 0
33 5 -62 0
-13 -41 -31 0
-69 34 13 0
11 21 -45 0
-39 -31 41 0
-37 28 5 0
-53 -51 46 0
52 39 -26 0
-48 -16 -5 0
22 -11 32 0
-66 -33 -51 0
4 19 -13 0
48 18 -30 0
-22 23 69 0
-16 8 39 0
69 18 45 0
-25 33 -2 0
4 43 -52 0
36 27 45 0
-19 -69 41 0
-20 -59 -19 0
64 -1 -14 0
46 -37 4 0
-19 29 22 0
-12 63 -52 0
-20 64 -40 0
-50 23 -61 0
8 -52 47 0
-11 1 69 0
-63 -68 14 0
-61 17 7 0
10 66 -59 0
11 -14 48 0
54 12 -26 0
16 -57 -33 0
15 41 20 0
-20 -26 59 0
9 30 -48 0
-27 -34 -25 0
63 -51 52 0
-31 -26 -17 0
8 35 -47 0
-34 -33 9 0
-68 -55 47 0
23 37 51 0
-38 -53 6 0
-42 58 -63 0
-20 22 30 0
-29 54 -17 0
43 54 -36 0
-28 45 -5 0
8 49 48 0
65 -70 39 0
-47 1 -63 0
34 13 44 0
7 50 15 0
57 -50 -46 0
12 -46 -22 0
-30 45 37 0
59 -23 -37 0
54 -29 56 0
-19 35 58 0
24 -53 -13 0
45 -40 -27 0
14 -4 10 0
32 58 -35 0
-37 -19 23 0
-63 14 -19 0
-14 30 61 0
-62 -48 37 0
