p cnf 70 270
49 29 -7 0
54 -37 23 0
24 25 46 0
12 -51 -34 0
-62 52 -23 0
-5 -57 26 0
61 41 46 0
45 15 11 0
4 -26 -30 0
-58 48 -13 0
30 -66 21 0
70 -9 -29 0
1 53 68 0
11 -40 -23 0
-49 13 24 0
-49 9 53 0
-16 5 -57 0
46 -6 54 0
57 8 -53 0
15 -7 11 0
-6 -45 62 0
2 -46 -8 0
-39 36 -29 0
-4 -50 33 0
-9 -57 21 0
30 53 -41 0
37 42 -33 0
58 -56 69 0
9 -15 -19 0
56 53 -45 0
15 -60 -42 0
32 51 45 0
-70 -65 10 0
-34 -52 -69 0
59 -11 -62 0
18 -49 53 0
-47 -52 28 0
29 35 18 0
43 -37 -53 0
57 -69 35 0
-58 14 39 0
-22 -14 -9 0
65 68 -20 0
-64 20 1 0
-2 46 44 0
70 23 32 0
57 8 -53 0
26 -41 -5 0
-69 17 -20 0
-65 25 -22 0
-22 11 65 0
-25 -5 -2 0
-45 -5 -22 0
-40 60 69 0
25 22 -7 0
68 -31 -59 0
61 -40 48 0
-27 28 -17 0
14 48 17 0
32 51 -63 0
-50 -27 59 0
1 65 -66 0
38 -41 69 0
55 48 -4 0
-35 -16 3 0
-44 52 -24 0
-59 -62 -40 0
-47 48 -59 0
51 -64 2 0
18 -21 56 0
-51 -49 30 0
-26 6 4 0
53 55 -58 0
-9 -45 -23 0
-38 20 70 0
29 53 21 0
-7 -9 -61 0
35 51 57 0
-59 -37 -50 0
-25 43 -62 0
7 -1 -69 0
53 31 -28 0
28 -31 -49 0
-46 -23 24 0
-12 -8 -1 0
-39 16 -66 0
23 18 1 0
4 1 3 0
-42 55 14 0
40 25 24 0
55 -22 58 0
49 -18 67 0
-28 5 -50 0
-45 -2 62 0
10 -36 41 0
-65 -55 -60 0
65 -7 45 0
49 20 -2 0
39 -12 9 0
-43 69 46 0
-25 -30 -19 0
-22 -14 50 0
-32 40 -9 0
-60 26 4 0
59 21 70 0
60 -22 40 0
28 -39 33 0
-18 -56 -6 0
-39 43 -2 0
-44 -56 36 0
-12 -21 15 0
60 -58 -29 0
-2 55 14 0
58 31 -30 0
-64 20 -23 0
69 28 -35 0
-5 62 43 0
41 31 11 0
4 19 49 0
-46 66 -20 0
-23 -5 -7 0
-48 63 59 0
37 10 -69 0
34 14 -53 0
70 64 -31 0
-70 65 -47 0
26 49 5 0
-32 29 16 0
39 4 -61 0
34 -60 56 0
-64 32 -60 0
47 -33 -49 0
9 52 15 0
7 -26 47 0
29 58 54 0
-39 31 50 0
9 48 -31 0
24 -44 -18 0
-9 42 -54 0
-55 57 -18 0
-10 1 60 0
-10 18 42 0
35 -23 -15 0
63 -25 -40 0
-27 39 -62 0
-67 53 -68 0
-5 35 67 0
-32 5 29 0
-68 12 66 0
-55 -3 30 0
-38 62 34 0
60 -34 48 0
-42 -8 13 0
-41 48 -28 0
-63 31 10 0
-28 68 44 0
41 6 56 0
-9 -32 48 0
-25 -46 -69 0
40 19 -13 0
-61 -45 -2 0
9 -60 -31 0
-24 66 -8 0
-5 -60 -14 0
-49 48 51 0
-30 1 -37 0
-6 23 -38 0
51 -24 9 0
-60 39 67 0
-55 5 -14 0
15 -16 -51 0
69 40 24 0
-37 -2 -60 0
-41 -43 14 0
-32 -70 28 0
-25 -56 -57 0
69 -21 59 0
-33 -24 36 0
65 25 -33 0
-57 29 -31 0
57 -19 -39 0
10 69 -49 0
-31 -43 50 0
29 4 63 0
-9 -28 68 0
-37 48 -56 0
41 -38 -50 0
70 45 22 0
1 3 41 0
29 36 -8 0
-20 22 35 0
-51 -42 -68 0
-67 9 -46 0
-4 37 27 0
7 48 68 0
15 38 -66 0
66 22 62 0
-17 -42 67 0
-64 50 -44 0
-8 -68 37 0
30 -37 6 0
-33 63 56 0
35 63 -7 0
57 -35 49 0
68 -41 2 0
63 5 -17 0
-68 40 49 0
18 -25 -28 0
-60 -14 -34 0
-4 11 -15 0
29 27 30 0
39 27 -30 0
-67 52 32 0
-25 29 70 0
50 -2 31 0
-11 52 -61 0
-68 -3 31 0
4 -15 67 0
-61 -60 15 0
-32 20 64 0
33 -4 40 0
48 31 56 0
-1 49 -48 0
62 14 -65 0
-38 -45 -67 0
54 53 -32 0
-44 63 -5 0
39 41 9 0
-57 37 -54 0
68 -47 55 0
66 -20 47 0
-43 -50 56 0
-56 -44 29 0
-23 -63 30 0
-12 -33 -58 0
-30 46 -69 0
-2 -52 -54 0
40 -1 -27 0
69 60 -59 0
-11 26 -66 0
54 -15 32 0
-24 36 -41 0
-10 22 -3 0
21 39 26 0
-58 -1 -5 0
6 49 47 0
36 9 -50 0
-45 -61 4 0
57 -14 -63 0
45 -28 -21 0
-48 -60 22 0
22 -34 -20 0
-39 69 -65 0
-27 55 8 0
-46 28 6 0
-64 40 -65 0
-21 -19 58 0
60 54 -4 0
-51 16 19 0
-16 -52 -63 0
-67 -66 -51 0
-60 -4 27 0
48 -26 32 0
-7 -17 -51 0
-16 26 -61 0
44 -22 -21 0
20 12 31 0
54 -70 65 0
-39 47 -5 0
-4 -34 56 0
