p cnf 70 265
44 -6 65 0
12 -67 -65 0
-37 -44 6 0
-23 24 1 0
33 67 17 0
38 62 50 0
15 -70 31 0
-46 -15 49 0
-51 42 -57 0
-7 -46 -40 0
-36 39 66 0
32 -56 34 0
41 -33 9 0
29 45 39 0
63 -36 -12 0
-23 57 62 0
43 70 -61 0
-11 -31 18 0
-25 -49 -32 0
37 9 34 0
-60 -46 35 0
-6 -36 59 0
30 -39 -42 0
-67 37 4 0
-43 33 -49 0
-65 27 -52 0
40 53 69 0
67 64 66 0
-51 -31 -62 0
-2 59 -9 0
-67 51 -38 0
-49 -64 43 0
17 27 -47 0
7 -30 15 0
-66 51 53 0
-42 -31 58 0
19 -26 14 0
-30 -68 24 0
69 -47 -35 0
29 -44 69 0
54 11 -13 0
-3 12 69 0
-8 48 -37 0
-33 -66 -48 0
31 -52 57 0
-55 69 -47 0
-70 -59 -18 0
-22 -14 -44 0
-65 -38 -42 0
-64 20 32 0
49 32 27 0
45 -41 -61 0
21 -23 5 0
63 70 42 0
41 -19 6 0
50 -65 51 0
-41 34 25 0
-2 66 38 0
-20 -57 67 0
2 44 13 0
45 -12 9 0
-9 29 -37 0
43 -42 -28 0
26 -62 24 0
-56 23 -59 0
-44 60 33 0
-59 -6 -68 0
-30 -47 -43 0
23 48 63 0
-26 -34 29 0
-55 -68 -60 0
44 -57 23 0
-65 6 -62 0
-33 -51 19 0
-53 20 -14 0
-18 -59 -16 0
-25 -14 58 0
-30 57 62 0
-5 15 -42 0
66 -53 -27 0
19 -54 27 0
-2 -68 24 0
-10 29 26 0
-30 -25 -21 0
37 -28 9 0
46 -52 34 0
56 -7 -41 0
11 59 -30 0
65 41 -23 0
-10 -38 61 0
-44 -38 69 0
38 47 51 0
-55 -23 -7 0
35 -54 50 0
-23 -55 -2 0
65 35 43 0
57 44 -38 0
61 32 50 0
-21 25 68 0
53 -65 -70 0
12 -36 -14 0
-67 -60 -3 0
70 -37 -40 0
23 69 25 0
40 68 -23 0
23 -11 28 0
4 26 34 0
69 16 33 0
42 -58 -36 0
-40 -37 -65 0
68 -32 -45 0
-37 -43 -48 0
27 19 -32 0
-12 61 1 0
35 -5 45 0
39 -60 49 0
64 -63 48 0
-6 -24 -47 0
13 68 -36 0
7 -39 -20 0
56 5 37 0
22 -18 47 0
-51 63 68 0
1 -36 -62 0
34 49 3 0
-18 -27 -31 0
-49 -16 39 0
-27 -28 -64 0
34 -35 36 0
-53 -43 39 0
-22 27 57 0
16 6 62 0
66 -54 -59 0
66 21 -54 0
66 -32 -57 0
-37 -24 13 0
36 59 65 0
-19 1 -26 0
22 70 -69 0
-34 9 -53 0
-65 -26 -51 0
-11 -70 -38 0
35 2 -3 0
19 -64 -6 0
33 -62 -70 0
70 -43 -38 0
-15 -51 17 0
-6 -3 -2 0
-35 -10 -6 0
49 30 2 0
15 -4 42 0
19 -51 45 0
54 15 -47 0
17 -61 64 0
68 13 19 0
63 6 -42 0
48 35 6 0
39 -54 26 0
-18 39 -53 0
32 -3 47 0
12 49 24 0
7 -43 48 0
-22 69 -61 0
55 -3 29 0
23 21 -42 0
70 -14 -55 0
-61 -41 -25 0
-30 39 -17 0
56 -63 28 0
53 -51 58 0
44 -21 -60 0
23 50 -10 0
-33 50 65 0
-69 -2 -51 0
8 -22 -67 0
41 42 -52 0
-70 -4 -56 0
-19 32 51 0
-50 -42 18 0
14 60 -68 0
70 11 -55 0
20 3 69 0
15 -41 -49 0
45 63 16 0
-19 48 43 0
-63 20 -25 0
49 -38 23 0
-29 -1 -12 0
-53 3 15 0
-64 52 4 0
-47 -11 -7 0
48 52 46 0
31 -64 -69 0
-66 -25 63 0
-10 -59 -24 0
-27 64 30 0
-51 -46 1 0
-30 32 61 0
42 -2 -41 0
56 -68 39 0
-59 -50 48 0
64 18 63 0
65 40 -1 0
-11 42 70 0
-52 -24 53 0
9 63 -2 0
6 24 53 0
-53 -55 -44 0
23 -51 -38 0
67 -17 58 0
11 -5 67 0
7 -11 -59 0
-70 60 36 0
46 56 -19 0
22 58 -19 0
-32 -40 -14 0
-11 38 -9 0
-27 67 10 0
68 -9 -57 0
-49 30 70 0
25 -9 -57 0
48 43 -45 0
-68 2 32 0
64 -18 49 0
56 -35 10 0
-5 -38 20 0
13 -1 52 0
-25 36 70 0
50 -66 33 0
-6 24 -65 0
48 58 -31 0
-18 -33 -17 0
29 22 36 0
22 41 -51 0
-69 -8 18 0
-6 58 -70 0
64 -53 -37 0
59 37 -34 0
-15 45 -33 0
14 -34 -55 0
-45 -70 26 0
-26 -8 14 0
38 37 -3 0
34 62 -68 0
-36 -60 -43 0
-27 -54 18 0
-41 38 -48 0
-12 -1 -33 0
28 17 36 0
23 -55 -13 0
17 33 9 0
-32 -56 -23 0
-37 -1 52 0
10 15 -13 0
-12 70 -30 0
9 40 -26 0
40 56 28 0
-23 36 -30 0
16 36 20 0
27 68 59 0
11 55 -14 0
47 42 17 0
12 62 -64 0
54 47 19 0
-68 -60 -69 0
