p cnf 70 275
-48 -33 -50 0
-58 15 -17 0
13 54 -31 0
-3 8 61 0
57 44 36 0
-26 31 -10 0
-42 -58 66 0
35 9 26 0
-12 49 -39 0
-11 -35 -41 0
24 62 27 0
5 -69 48 0
5 45 -37 0
-1 54 66 0
-16 -3 21 0
-68 -47 19 0
54 21 -9 0
35 -54 -38 0
-9 -61 -22 0
-40 -38 -14 0
5 13 64 0
65 64 -42 0
-33 -14 36 0
-3 -37 -44 0
-40 -59 -65 0
-52 64 -26 0
36 35 60 0
59 51 53 0
41 8 39 0
-17 5 55 0
-37 -5 -57 0
-52 51 -67 0
-59 -15 -31 0
-49 48 -50 0
-12 23 -66 0
-8 -36 -39 0
-27 -53 -9 0
60 5 -11 0
-29 21 -62 0
28 -10 -60 0
39 44 70 0
16 -62 -63 0
52 5 15 0
-17 -45 6 0
7 -53 39 0
13 44 54 0
-39 -4 23 0
25 11 9 0
33 -9 -62 0
58 -3 -39 0
-38 -53 -37 0
67 58 3 0
-23 53 -63 0
4 -36 -5 0
-45 51 -30 0
41 46 24 0
-8 -22 -69 0
4 67 45 0
-40 69 70 0
57 40 7 0
-67 -41 12 0
47 -7 -14 0
-68 -57 -42 0
-17 -1 -19 0
56 -6 65 0
24 66 1 0
59 -38 46 0
44 -69 -8 0
-9 -50 61 0
8 -37 -40 0
17 -50 58 0
44 30 -7 0
-49 51 -27 0
-5 54 -6 0
42 -44 -38 0
-46 11 -60 0
-34 65 8 0
-54 23 33 0
39 49 6 0
-42 10 -27 0
-1 57 27 0
-17 57 42 0
48 26 22 0
-64 40 -70 0
-44 -65 17 0
33 -60 -7 0
30 48 -15 0
16 -6 -25 0
32 61 -1 0
17 22 -46 0
21 6 24 0
-38 6 -31 0
47 -58 -13 0
-7 -43 -67 0
-11 -23 -28 0
17 -9 -63 0
32 8 33 0
-22 -40 35 0
-26 -28 63 0
-62 23 -67 0
23 -59 56 0
-9 -8 -6 0
44 55 -64 0
-67 18 -7 0
3 -59 -42 0
-53 -13 -31 0
66 -46 -38 0
30 55 60 0
20 61 -62 0
49 -20 5 0
-64 39 -54 0
-46 8 -35 0
-16 -27 67 0
35 16 12 0
-66 68 59 0
29 34 -57 0
-17 -38 33 0
6 37 -39 0
-65 -64 -51 0
22 8 19 0
34 -39 58 0
-25 -39 -26 0
33 -44 -37 0
31 -3 -29 0
53 17 -22 0
-66 -56 -26 0
-24 -55 26 0
56 7 -2 0
32 -45 36 0
-16 33 -67 0
43 5 -37 0
-6 65 14 0
-37 -27 -58 0
62 27 57 0
-65 37 -35 0
-65 -50 63 0
25 17 -12 0
-36 -21 22 0
31 4 -21 0
9 37 -29 0
-17 7 40 0
-40 -33 -20 0
-48 -54 23 0
17 55 -70 0
-13 -2 -59 0
-52 60 -23 0
-31 54 -48 0
15 -7 -51 0
65 54 22 0
62 -23 40 0
-44 -40 -65 0
37 -16 19 0
18 9 56 0
-57 64 62 0
51 8 56 0
-13 -70 12 0
54 -42 -60 0
-62 20 21 0
-56 36 -33 0
-62 -3 35 0
56 -23 39 0
-26 -41 43 0
-39 7 33 0
2 26 -65 0
20 -18 41 0
-14 -29 28 0
-21 -62 51 0
-28 26 -51 0
-62 -22 40 0
14 -35 -12 0
-62 4 40 0
-62 -48 5 0
-9 62 13 0
68 22 58 0
14 48 -29 0
-43 -3 40 0
-4 -18 -28 0
-30 2 9 0
-49 -40 54 0
11 -35 66 0
-2 -63 -32 0
-50 17 -62 0
-45 -26 -49 0
-1 66 40 0
-68 27 -70 0
70 -14 31 0
-29 -59 54 0
-22 -55 -6 0
13 14 -37 0
-65 41 51 0
-23 43 -1 0
-23 64 38 0
65 -42 -52 0
38 26 -16 0
-6 32 -55 0
-40 -21 64 0
69 -52 -66 0
-62 -47 43 0
65 -38 57 0
-60 -19 9 0
28 59 -1 0
52 -58 54 0
-34 42 37 0
31 43 -50 0
-58 -23 20 0
-12 -49 -64 0
-25 -9 -63 0
12 -14 42 0
-2 21 59 0
36 45 -30 0
64 -70 43 0
16 37 -1 0
-2 -67 31 0
58 -28 -53 0
39 38 -31 0
-2 39 6 0
53 38 -69 0
-41 -28 -66 0
62 47 -45 0
-15 9 -48 0
-65 -58 -64 0
-2 38 8 0
54 50 -68 0
63 55 31 0
68 -66 10 0
4 -63 50 0
-50 70 -25 0
51 -60 -32 0
-23 -17 -62 0
-39 -59 -66 0
48 6 -63 0
-61 -20 -11 0
-29 -9 -27 0
60 -4 -63 0
-18 -67 -26 0
34 -28 -25 0
-23 -33 44 0
-47 59 -45 0
49 5 -62 0
-26 60 -29 0
53 -39 55 0
33 -55 -42 0
22 37 48 0
54 58 -25 0
27 -44 32 0
11 17 -45 0
-37 -47 -14 0
-52 60 -37 0
40 2 -10 0
-62 -53 -50 0
-26 -22 11 0
-9 -22 -23 0
-35 -16 61 0
-42 -21 -64 0
-56 46 -52 0
1 -49 -43 0
46 15 -43 0
-32 44 17 0
-11 -1 -45 0
15 -58 36 0
70 51 -32 0
33 1 -62 0
46 -64 38 0
13 -42 -38 0
-20 13 -55 0
2 57 40 0
42 57 3 0
-29 -8 22 0
-3 35 -8 0
-39 -50 -40 0
-13 -65 -43 0
-14 -68 62 0
1 -4 -43 0
-36 -41 -29 0
28 6 53 0
