p cnf 70 300
8 -26 -39 0
46 -24 67 0
-13 31 37 0
-47 8 -55 0
42 -7 5 0
32 59 -51 0
-36 -4 66 0
-24 36 -10 0
-8 -44 29 0
-42 59 -36 0
23 11 13 0
-16 31 -5 0
15 -52 -3 0
64 23 13 0
-54 62 33 0
22 -33 -26 0
-62 -12 4 0
11 28 7 0
-6 -26 -31 0
45 -8 -39 0
-49 -20 -41 0
14 -21 -22 0
-31 7 -36 0
32 -3 56 0
19 56 30 0
-56 -69 -63 0
47 5 20 0
-9 -63 36 0
-28 69 46 0
-41 -33 -42 0
28 63 65 0
10 58 -33 0
-15 53 -9 0
-14 66 -19 0
49 -48 -35 0
19 -9 -56 0
-36 43 -65 0
-3 9 14 0
69 -54 25 0
1 63 -32 0
-46 -50 -52 0
-17 23 41 0
33 26 -4 0
45 -29 3 0
-60 33 -7 0
-57 -44 -58 0
-45 32 -24 0
44 -69 57 0
-58 33 -15 0
-64 49 -46 0
-62 30 -68 0
-30 23 -11 0
55 -70 -26 0
-68 -65 24 0
16 42 26 0
-48 44 24 0
45 -12 -56 0
-33 1 31 0
64 6 -23 0
61 17 -4 0
22 -20 -38 0
37 66 -55 0
-60 32 -27 0
-11 -70 -21 0
14 -7 -51 0
-41 -52 -11 0
32 -54 -47 0
63 7 31 0
19 -16 -34 0
-35 53 -39 0
-25 -21 -40 0
-47 35 -48 0
-41 -37 12 0
35 63 7 0
-20 63 -37 0
-67 -55 -13 0
-24 -2 -51 0
32 37 69 0
-60 24 53 0
-29 8 -32 0
5 -19 10 0
62 -26 19 0
8 57 6 0
-49 -15 -60 0
-42 -47 38 0
27 14 -18 0
14 38 -37 0
67 16 -5 0
-64 -51 20 0
19 -27 26 0
-2 -60 -53 0
-41 -42 12 0
14 -12 23 0
-48 -69 21 0
15 -53 22 0
-45 49 57 0
11 4 26 0
60 29 41 0
-39 30 68 0
12 4 -64 0
-2 -7 28 0
-34 -59 -4 0
48 17 66 0
-1 30 -18 0
18 68 22 0
21 68 59 0
-41 -66 39 0
32 39 19 0
-33 8 -30 0
-29 19 -55 0
30 -66 -17 0
-62 69 64 0
23 12 35 0
34 68 2 0
-7 -67 -12 0
-13 25 -1 0
-63 -48 -45 0
56 -16 31 0
-51 -59 -54 0
-52 34 61 0
53 -18 27 0
62 -45 -65 0
40 -30 -39 0
57 58 61 0
47 -35 -10 0
33 -49 -21 0
-63 -39 -67 0
-17 15 -34 0
-64 -1 51 0
-4 -28 44 0
36 11 -18 0
-70 55 -5 0
-42 34 -48 0
-47 33 60 0
10 7 4 0
54 69 14 0
-50 68 -60 0
18 -47 -37 0
-9 -33 46 0
-58 -5 3 0
38 14 -31 0
14 12 -20 0
58 -13 64 0
-4 48 56 0
33 49 -2 0
12 -57 16 0
-49 -4 -28 0
23 -63 26 0
-8 -33 -55 0
-39 -35 -18 0
-37 41 -20 0
16 -58 -57 0
55 -64 -70 0
-21 -29 14 0
38 -33 -54 0
-57 12 22 0
-33 52 -22 0
58 48 -50 0
47 61 38 0
16 -66 17 0
63 -29 59 0
61 -48 -19 0
-13 -5 -6 0
14 -49 -65 0
-51 -2 28 0
40 6 -17 0
-60 -23 11 0
-11 49 -44 0
3 -22 -42 0
-53 -50 1 0
-17 -13 -44 0
-61 -45 34 0
-29 43 69 0
-17 36 -8 0
19 -52 -53 0
-57 -56 16 0
67 -6 -34 0
-66 -3 -36 0
-47 25 -27 0
21 -49 -59 0
24 -35 59 0
54 45 -47 0
-16 -34 -67 0
-19 23 -3 0
34 37 55 0
18 31 44 0
-3 -56 30 0
38 9 -26 0
-66 -22 23 0
4 10 37 0
-63 56 -68 0
20 -15 29 0
25 21 16 0
49 -59 27 0
26 23 55 0
-18 -39 -37 0
-68 -29 -2 0
-22 -41 -8 0
12 -45 17 0
-50 46 32 0
66 -10 37 0
29 25 42 0
48 55 -64 0
-4 -24 64 0
63 11 51 0
1 -66 -42 0
-51 -8 -46 0
-44 -4 30 0
32 -49 -57 0
-54 -8 65 0
-29 65 -35 0
-65 26 -15 0
62 63 44 0
49 47 23 0
11 -2 -13 0
50 -3 52 0
48 25 31 0
-28 -11 13 0
-29 -69 -12 0
5 -26 -6 0
69 25 -35 0
-28 -6 -39 0
-51 44 -61 0
-47 44 -51 0
21 -42 11 0
13 44 -50 0
32 -1 -18 0
-53 -10 -52 0
16 -57 12 0
67 8 -3 0
53 14 46 0
30 35 -58 0
-57 58 -44 0
-13 -22 67 0
-24 -16 -19 0
-24 10 -1 0
9 -7 -55 0
-16 -41 11 0
-1 60 28 0
11 -38 13 0
2 40 -33 0
50 -27 58 0
53 -7 -26 0
-9 -45 -67 0
-47 -36 49 0
-51 -13 -55 0
44 37 3 0
-23 -35 -19 0
14 -70 9 0
6 14 -30 0
-25 16 33 0
41 -54 50 0
18 -30 -22 0
7 16 -32 0
-5 -19 21 0
68 -59 70 0
23 41 21 0
30 59 31 0
62 50 -28 0
53 -55 -56 0
11 -12 -38 0
22 -44 -28 0
60 8 65 0
69 23 47 0
9 3 2 0
18 22 -66 0
18 -47 -43 0
41 50 30 0
45 64 -4 0
-45 10 59 0
44 -45 -3 0
7 -52 8 0
65 54 38 0
40 -16 19 0
45 -47 8 0
44 42 -16 0
-57 7 -61 0
-34 43 -51 0
-41 -1 24 0
19 -14 -50 0
33 32 53 0
-61 -20 66 0
-66 56 20 0
-51 48 37 0
-41 11 34 0
45 31 -8 0
62 6 -48 0
-2 32 -33 0
64 52 -27 0
47 -57 49 0
-69 6 47 0
-23 -46 11 0
-61 -39 -6 0
34 -6 -61 0
49 34 56 0
-32 -62 61 0
-33 -43 -59 0
62 30 -34 0
10 -43 30 0
-46 -52 10 0
