p cnf 70 275
-53 -60 20 0
29 -70 42 0
39 -41 -5 0
44 -48 33 0
-41 -65 -32 0
-39 26 19 0
-30 -4 -40 0
61 -41 -29 0
-49 -22 -14 0
32 52 -33 0
-41 -63 22 0
-21 53 62 0
-32 -18 1 0
-33 13 -34 0
25 5 -29 0
-50 5 -53 0
-25 -50 62 0
15 2 -9 0
-54 20 46 0
-38 -12 -34 0
-33 60 -56 0
-11 70 25 0
25 -48 -16 0
20 -35 50 0
43 -5 -62 0
-67 -9 45 0
51 -31 48 0
-46 28 -37 0
6 64 23 0
48 8 29 0
-21 24 -40 0
-45 10 1 0
-44 51 -49 0
14 -10 -3 0
46 58 68 0
-20 -17 62 0
-37 -47 44 0
-23 48 30 0
-47 -8 1 0
-44 -20 -49 0
-9 -50 67 0
3 -40 -61 0
-11 -47 -65 0
-43 -21 19 0
-65 41 40 0
38 -9 -55 0
28 -59 63 0
5 -9 39 0
-34 13 -16 0
24 -66 -21 0
-19 -4 54 0
22 27 2 0
-56 -34 -47 0
63 44 68 0
2 -11 63 0
20 28 -17 0
-53 66 46 0
-63 44 31 0
3 -25 12 0
62 -56 -53 0
-4 -39 18 0
18 41 -67 0
-15 58 37 0
10 -62 43 0
-56 -40 14 0
-8 2 40 0
29 -7 44 0
-48 -17 19 0
-41 37 48 0
57 59 22 0
-62 51 57 0
68 45 46 0
66 60 -52 0
41 -53 40 0
4 37 -43 0
-8 58 -17 0
-70 -31 -63 0
35 -56 10 0
-20 42 8 0
-58 40 13 0
-41 7 34 0
-60 61 52 0
29 66 -13 0
-67 -10 57 0
10 -38 -6 0
-64 -21 -7 0
-9 -69 70 0
-45 66 -52 0
47 -19 -31 0
19 35 48 0
-38 -48 -49 0
-30 24 -47 0
50 63 -48 0
-51 -7 -69 0
41 -4 -58 0
-22 -29 -15 0
-6 -29 -31 0
38 53 50 0
43 -66 -18 0
2 55 26 0
3 -22 59 0
27 -42 52 0
44 -52 38 0
-6 -14 39 0
-6 -41 14 0
-39 3 6 0
-2 42 -23 0
29 17 -16 0
-6 -8 -56 0
5 44 16 0
-16 -47 -8 0
26 -8 -41 0
40 -8 39 0
29 38 36 0
-27 24 -28 0
-69 18 8 0
57 26 -33 0
15 33 1 0
49 27 -30 0
-32 -38 -8 0
64 -37 -67 0
-9 -2 12 0
28 55 14 0
-7 38 62 0
-27 56 60 0
8 27 2 0
-55 -28 -66 0
66 34 -56 0
-16 64 54 0
18 27 -12 0
38 -39 23 0
58 -61 -59 0
-18 -63 -51 0
54 -43 -49 0
-61 58 28 0
-33 25 56 0
-34 -43 36 0
45 15 -6 0
3 33 -18 0
-60 28 -5 0
67 -42 -8 0
56 54 69 0
2 60 53 0
-13 -4 -30 0
-54 24 -21 0
-67 -25 42 0
4 -33 -57 0
-9 2 35 0
10 47 16 0
-49 -40 60 0
4 -3 -39 0
-53 -39 37 0
-14 4 -7 0
-43 -60 -24 0
-34 -66 64 0
7 -4 -55 0
-45 -68 -65 0
-45 -26 32 0
62 -30 -35 0
39 47 -58 0
-48 55 66 0
-63 -47 -32 0
-66 -13 -10 0
67 60 52 0
10 -34 -45 0
52 -33 -41 0
1 8 57 0
-48 59 22 0
69 35 9 0
46 68 51 0
-39 -56 -17 0
-14 -45 -48 0
43 -9 44 0
-19 -36 -24 0
-25 24 -13 0
5 -27 19 0
60 -24 -58 0
30 4 -24 0
47 -21 -12 0
-67 -50 37 0
9 27 -20 0
-68 13 -19 0
4 69 -49 0
15 11 30 0
-22 -25 -19 0
47 19 34 0
-34 39 -12 0
66 12 35 0
34 33 -12 0
5 58 -23 0
64 5 -43 0
35 4 33 0
6 -29 5 0
6 3 -58 0
-36 -48 -15 0
14 -33 -61 0
13 10 70 0
38 -30 47 0
-33 -38 31 0
51 -22 52 0
-18 12 -28 0
-6 66 -18 0
9 -22 -63 0
-24 13 -2 0
55 -28 -43 0
59 -6 -54 0
53 -27 -9 0
38 -20 61 0
34 3 -30 0
-51 -32 -12 0
-55 31 25 0
10 2 -55 0
-26 16 36 0
58 44 -10 0
18 49 -23 0
-36 21 -34 0
-21 58 -17 0
66 -65 -23 0
-50 66 -45 0
-39 -32 52 0
-40 -38 -55 0
-45 -49 10 0
-23 14 62 0
60 -20 54 0
-62 50 7 0
-2 1 10 0
25 59 -56 0
-58 39 -30 0
46 -16 35 0
-70 65 -55 0
-62 45 23 0
-14 32 40 0
62 -47 -10 0
-55 46 20 0
-45 -56 -36 0
45 -39 -13 0
-27 20 -47 0
31 -34 21 0
51 -64 68 0
-69 -30 33 0
40 43 -30 0
19 67 28 0
7 -42 56 0
59 3 -67 0
34 -51 -70 0
29 -1 59 0
20 -33 39 0
-9 66 67 0
-33 -62 -35 0
62 61 -44 0
-23 -5 40 0
-34 66 69 0
26 37 54 0
10 63 -5 0
45 -25 -51 0
-8 3 63 0
6 -67 -51 0
67 12 -63 0
68 27 -59 0
-45 48 -57 0
46 -30 63 0
-1 20 -44 0
41 -4 54 0
-40 36 11 0
12 8 52 0
-56 60 65 0
66 57 -52 0
3 -20 -37 0
-33 48 -49 0
52 27 15 0
8 7 2 0
66 67 35 0
-63 -7 -49 0
-17 -22 -34 0
-56 1 62 0
