p cnf 70 290
-58 21 -62 0
57 46 -45 0
63 31 -24 0
55 64 -40 0
-47 32 36 0
13 22 30 0
-52 -13 -57 0
40 30 -22 0
58 9 37 0
-19 -51 -17 0
-30 21 55 0
1 -37 -39 0
-44 57 -35 0
-53 -67 -11 0
55 -35 -2 0
-42 -48 25 0
-61 32 -8 0
-19 -65 35 0
1 7 -16 0
40 -1 -12 0
-26 -18 -69 0
9 -2 43 0
41 63 -40 0
-6 -66 -21 0
-52 16 47 0
17 -61 -16 0
64 51 40 0
-42 -6 23 0
-41 48 9 0
2 51 49 0
-34 -15 -62 0
-46 -69 -15 0
3 7 -64 0
15 23 -36 0
-47 27 48 0
-43 16 68 0
-35 -45 6 0
22 -42 -61 0
20 66 69 0
-32 -54 -19 0
-16 -35 -62 0
-56 -7 -9 0
52 -17 -45 0
-39 6 -57 0
18 42 -50 0
-61 18 4 0
22 -62 -64 0
-8 -3 68 0
40 -47 -24 0
59 66 22 0
-2 -8 9 0
60 35 61 0
53 -59 29 0
45 10 35 0
43 -16 65 0
-2 36 -25 0
37 50 -64 0
-22 -63 -53 0
60 -7 33 0
-42 44 49 0
-68 17 -12 0
-26 -43 47 0
22 -46 48 0
69 -66 -14 0
-47 3 23 0
-38 43 8 0
-32 53 66 0
60 37 -70 0
-54 -44 8 0
37 41 -65 0
-2 -33 -1 0
-8 -25 69 0
27 -45 47 0
52 -57 -11 0
-57 64 40 0
19 -16 -39 0
-47 35 -68 0
36 -57 24 0
23 33 65 0
9 22 20 0
66 -19 13 0
-64 47 -46 0
-47 41 61 0
7 9 -40 0
15 27 -30 0
-66 16 15 0
12 -8 15 0
9 -62 54 0
-50 7 34 0
-55 -40 -67 0
-51 -62 3 0
-9 -60 -7 0
26 25 7 0
-8 -41 -16 0
65 51 56 0
-61 1 -50 0
31 -55 -1 0
36 -45 -53 0
18 -35 61 0
20 6 31 0
33 -21 -41 0
45 -30 14 0
44 -41 -64 0
18 39 13 0
5 -58 -61 0
-13 69 23 0
43 51 17 0
-8 -24 4 0
-58 67 35 0
59 -61 -37 0
-23 -62 68 0
19 -32 59 0
69 -38 -37 0
60 -26 -3 0
67 -23 45 0
-64 -16 3 0
20 27 -15 0
-62 -42 -40 0
-29 32 -25 0
-28 -19 70 0
-32 -9 -65 0
-41 -64 61 0
43 26 33 0
28 -22 -53 0
54 -32 22 0
32 1 4 0
3 -18 -62 0
52 -28 -22 0
-2 51 42 0
28 -57 -15 0
-64 -57 -7 0
-16 -15 -50 0
-67 60 50 0
-48 2 14 0
55 17 1 0
-70 56 44 0
-19 -22 43 0
34 68 -67 0
-62 27 39 0
52 -17 -18 0
-3 -8 37 0
51 2 27 0
-61 -31 67 0
49 -35 58 0
-8 -32 -12 0
-11 -37 -19 0
-19 -35 33 0
54 -60 19 0
43 -9 41 0
6 33 -16 0
70 64 15 0
15 25 -33 0
-59 -55 -50 0
17 -55 -45 0
-25 14 39 0
6 60 -9 0
-17 -30 -1 0
22 -48 27 0
29 -63 -60 0
8 17 -21 0
-61 -38 -27 0
-52 -16 49 0
15 25 -64 0
64 8 4 0
-57 45 -40 0
70 5 7 0
50 -5 15 0
-4 38 -32 0
6 12 52 0
9 -59 13 0
18 7 -4 0
70 17 38 0
-24 65 33 0
64 -5 -51 0
31 -4 51 0
-15 14 -67 0
64 -68 -54 0
66 3 25 0
-4 28 66 0
-22 52 46 0
56 -5 68 0
20 -12 26 0
-15 48 1 0
37 68 -5 0
56 -27 57 0
62 -44 -58 0
51 -53 -29 0
-32 -11 27 0
47 33 26 0
54 22 -61 0
-9 -60 27 0
24 59 -18 0
48 2 -45 0
-35 63 51 0
39 52 55 0
38 -11 -36 0
50 49 7 0
-38 42 -30 0
31 61 -19 0
-38 32 -70 0
14 -2 -59 0
65 56 8 0
14 -68 1 0
-26 -17 -39 0
62 28 -52 0
19 48 -18 0
18 -70 19 0
10 -28 -17 0
20 59 55 0
35 43 14 0
-25 -18 35 0
45 14 2 0
-6 -60 -48 0
54 39 -5 0
-20 57 38 0
38 9 27 0
16 -55 -65 0
25 41 -46 0
-35 31 -39 0
-37 19 -12 0
55 -27 36 0
-15 -57 -32 0
-5 -22 -52 0
60 21 -57 0
20 -51 -13 0
-27 26 53 0
8 -60 -9 0
34 31 35 0
-34 -51 47 0
-37 17 11 0
-17 -9 -58 0
-5 21 -24 0
18 68 35 0
-16 67 54 0
-47 -42 -9 0
64 -43 -23 0
30 -43 11 0
39 9 -20 0
68 -42 57 0
37 52 18 0
-61 -66 -51 0
25 27 36 0
-21 -60 -58 0
-17 -39 -32 0
44 41 19 0
14 26 8 0
-38 5 -57 0
-15 -1 -52 0
49 10 -41 0
-41 43 -58 0
-62 6 -23 0
35 -33 -57 0
-1 -58 16 0
43 66 36 0
66 -20 -12 0
-56 -38 -47 0
38 -37 61 0
35 5 31 0
-36 -54 64 0
-14 -37 -39 0
-35 48 -15 0
-13 66 -55 0
29 -57 54 0
48 -24 -55 0
65 -20 -17 0
22 16 -34 0
15 -16 36 0
23 62 -36 0
-4 2 54 0
-4 51 54 0
-23 -54 51 0
22 58 29 0
3 16 57 0
-33 -39 -62 0
-40 43 68 0
-11 -6 17 0
41 24 -1 0
68 -37 57 0
-58 49 35 0
45 -29 -25 0
58 -46 -55 0
70 15 -53 0
-19 40 -1 0
-46 -3 -12 0
54 -48 -57 0
44 62 65 0
-59 -32 -35 0
9 -59 -14 0
-57 -29 6 0
62 59 6 0
