p cnf 70 290
7 -25 52 0
19 53 -6 0
-44 -67 -26 0
68 59 -42 0
32 26 -54 0
51 -7 -53 0
59 53 21 0
58 -55 -49 0
-65 -9 58 0
34 -37 -51 0
-55 -49 43 0
-1 -48 -68 0
-68 34 -30 0
11 24 44 0
-53 -9 -16 0
-23 -43 5 0
-27 -57 -31 0
60 20 52 0
-47 17 19 0
62 -24 56 0
26 -8 -37 0
-7 -40 58 0
53 33 3 0
28 6 -56 0
69 6 66 0
65 -21 33 0
28 -18 52 0
57 24 8 0
21 -38 66 0
68 -62 -1 0
-51 4 -32 0
-2 14 15 0
46 -32 22 0
-53 -7 13 0
23 -11 -19 0
43 -8 62 0
-14 -51 40 0
45 -26 42 0
51 -68 11 0
-31 62 -19 0
7 57 23 0
-32 19 36 0
-36 -2 -16 0
46 -24 -57 0
40 37 -16 0
59 -30 -8 0
-9 21 54 0
-5 -10 61 0
12 -11 -4 0
2 -40 -62 0
-70 34 35 0
-11 69 -61 0
39 7 -53 0
-11 -41 -18 0
-70 -60 7 0
56 5 -32 0
-35 46 -15 0
33 59 -20 0
65 -13 34 0
-40 -52 68 0
51 -31 -49 0
18 -68 19 0
10 -32 -33 0
19 62 17 0
51 30 59 0
5 -37 36 0
3 10 -34 0
-44 -5 64 0
60 33 48 0
-27 57 65 0
61 -23 -52 0
39 -18 41 0
-44 28 66 0
-31 -13 -1 0
61 46 30 0
-43 8 38 0
62 39 8 0
-51 54 -44 0
45 40 -13 0
48 -60 14 0
-11 40 63 0
52 -65 -8 0
-8 -1 49 0
4 -1 -37 0
45 -61 23 0
31 -39 -27 0
-28 -67 -60 0
50 -41 -53 0
56 58 29 0
32 3 -29 0
-53 40 2 0
47 60 -37 0
9 -63 36 0
-20 45 68 0
63 -52 19 0
25 -23 62 0
65 -39 27 0
-69 -29 56 0
-46 2 -10 0
-15 66 -53 0
-12 29 -22 0
57 -13 -37 0
-33 14 30 0
16 -46 9 0
-38 -14 2 0
-4 -17 -65 0
52 20 -61 0
24 -12 -28 0
-39 -31 -21 0
22 -35 47 0
68 -6 -43 0
-58 -3 -52 0
44 -56 19 0
-58 -70 24 0
-16 -56 13 0
24 27 -68 0
52 53 45 0
27 -45 17 0
-2 -65 58 0
-38 16 67 0
51 47 70 0
19 32 -44 0
48 -14 4 0
40 69 14 0
-50 40 35 0
-57 -30 -1 0
66 -48 -38 0
46 66 52 0
-25 66 -68 0
-55 44 59 0
-31 -48 -56 0
-45 -12 49 0
14 -40 -53 0
30 -31 -19 0
-62 8 69 0
21 66 -62 0
64 60 -69 0
41 -62 -7 0
46 39 -49 0
-49 12 3 0
-56 -11 -25 0
29 -3 17 0
-60 8 69 0
-45 -30 50 0
-19 52 -35 0
-64 -10 25 0
31 -40 14 0
-56 -53 -67 0
62 -53 -21 0
-18 -14 61 0
-16 1 20 0
-41 56 -37 0
16 35 21 0
13 45 42 0
-43 -69 42 0
-67 6 -60 0
-57 -56 -50 0
-49 48 -14 0
26 -24 -3 0
-18 48 -45 0
-36 44 42 0
68 -23 -11 0
31 36 53 0
-47 -17 25 0
50 31 -64 0
42 68 -15 0
68 66 -17 0
-55 63 24 0
-27 -31 51 0
24 58 51 0
-34 -53 62 0
52 21 26 0
16 -29 65 0
-10 48 49 0
28 -50 36 0
18 -42 50 0
67 9 56 0
14 64 -40 0
-7 42 -21 0
4 65 -27 0
8 54 -64 0
-64 23 12 0
7 30 63 0
-21 -47 57 0
-66 56 2 0
-34 -2 47 0
40 61 36 0
-44 -9 30 0
2 3 57 0
62 -18 44 0
-65 -56 26 0
-8 -66 -65 0
-31 46 6 0
32 -54 34 0
18 39 -56 0
-48 19 56 0
61 58 -63 0
-8 26 30 0
-18 -52 -64 0
-26 15 65 0
-10 17 54 0
62 -33 34 0
59 4 -38 0
7 47 61 0
-24 35 21 0
-11 -54 16 0
8 3 -37 0
22 50 -28 0
-8 2 59 0
58 53 38 0
39 47 -2 0
-14 52 -26 0
-23 30 -57 0
8 -27 -26 0
-3 -6 -49 0
49 64 10 0
10 45 -20 0
18 -40 21 0
-49 -33 -24 0
-47 -68 -63 0
-29 -40 -66 0
40 -31 2 0
68 36 -15 0
-5 41 7 0
-41 48 -65 0
60 51 -17 0
-7 5 57 0
-29 13 -55 0
49 -57 31 0
20 11 -29 0
-32 -12 -66 0
31 -1 -14 0
34 2 -23 0
65 67 -29 0
-66 -2 -4 0
63 -33 53 0
19 -39 57 0
-2 -12 -3 0
66 -65 67 0
-59 39 -29 0
15 8 48 0
-5 -69 -44 0
10 56 66 0
-5 -29 -45 0
8 -39 -1 0
-23 24 69 0
-66 25 50 0
59 -64 34 0
-67 -6 14 0
23 18 -58 0
7 -54 -49 0
65 21 8 0
64 -22 -33 0
-16 55 52 0
37 -53 -15 0
25 49 28 0
-1 11 -3 0
-29 -4 34 0
69 -37 -53 0
-11 -22 -40 0
28 61 53 0
40 58 9 0
23 -9 43 0
9 -22 20 0
13 -28 41 0
-55 -39 22 0
-45 -53 19 0
49 -42 32 0
-1 -64 53 0
-14 -13 -48 0
69 -64 50 0
59 54 56 0
-7 -15 -59 0
-19 -67 -68 0
18 -51 -27 0
50 36 -22 0
-23 15 17 0
70 -21 1 0
-2 70 -60 0
14 -1 17 0
49 -35 6 0
-14 -2 -70 0
-7 -3 61 0
-6 -22 -54 0
23 63 27 0
-38 28 1 0
-44 -57 -43 0
-23 64 30 0
7 -29 -60 0
-27 70 -7 0
