p cnf 70 295
18 41 -63 0
43 -36 60 0
2 -32 -42 0
50 15 -28 0
-39 22 23 0
-50 -61 -69 0
-31 -29 25 0
66 -20 -62 0
-48 57 34 0
32 -7 -42 0
16 22 10 0
8 -47 17 0
27 -38 59 0
27 10 -30 0
-54 70 22 0
-21 61 2 0
-25 63 -65 0
44 1 33 0
55 -40 22 0
-57 -2 -47 0
-48 61 7 0
13 -15 -67 0
-3 -8 37 0
-66 -48 47 0
-39 36 38 0
-70 48 -65 0
25 -30 38 0
14 45 -42 0
-68 -31 -18 0
12 -27 60 0
-44 24 14 0
-46 65 9 0
-53 10 12 0
47 -43 -30 0
-21 -14 47 0
-70 -63 -61 0
37 -41 56 0
32 17 6 0
-18 -57 19 0
-42 -20 28 0
38 63 -48 0
-33 -6 32 0
55 -3 64 0
-13 62 -58 0
37 -20 45 0
48 67 -55 0
-36 24 13 0
-6 -64 -25 0
68 -21 24 0
-24 39 -55 0
37 1 -23 0
-41 38 58 0
-36 56 -31 0
38 39 -54 0
28 -30 -54 0
63 -50 -59 0
-15 -6 27 0
-39 -49 8 0
-44 67 20 0
-38 28 67 0
51 62 56 0
-46 -1 -35 0
-54 -34 -28 0
41 35 -45 0
63 62 39 0
-39 50 70 0
23 62 52 0
-36 -66 -34 0
-22 -14 -10 0
21 -8 -12 0
-58 -45 56 0
-41 39 -21 0
26 -16 -54 0
30 51 -52 0
-26 36 8 0
-33 -42 37 0
59 33 12 0
6 70 -2 0
-64 -53 54 0
-68 6 3 0
-4 31 -25 0
-70 -57 17 0
-44 -25 -67 0
-52 -66 -50 0
21 -25 -61 0
62 51 -4 0
-58 -70 -60 0
-5 69 30 0
31 19 -49 0
-67 42 28 0
41 64 -12 0
30 -64 -19 0
34 -8 5 0
7 35 60 0
45 42 -67 0
12 -35 39 0
65 35 47 0
54 29 65 0
28 52 -31 0
54 -35 50 0
-23 -43 -68 0
45 -8 59 0
-60 -53 63 0
-53 -55 -70 0
-67 26 -3 0
58 55 -19 0
-26 -15 -47 0
-65 -48 45 0
8 -41 -43 0
42 -48 -14 0
-42 16 -31 0
-28 -39 33 0
4 -5 38 0
64 14 15 0
21 -8 18 0
-29 54 53 0
57 21 4 0
9 -47 41 0
-21 -58 6 0
-28 -49 -67 0
-54 -55 -51 0
34 -27 12 0
54 -48 57 0
68 -24 -46 0
-29 69 1 0
48 -65 21 0
-15 62 -55 0
-45 58 13 0
25 36 5 0
60 -28 -31 0
6 2 -22 0
40 -18 17 0
-12 24 -28 0
4 48 -9 0
-48 -56 -65 0
-54 62 65 0
-57 56 43 0
-27 -49 -52 0
5 -3 60 0
-23 -8 -5 0
70 37 -3 0
-61 58 -40 0
31 54 38 0
18 40 -69 0
-36 44 43 0
-42 44 -29 0
-16 -51 2 0
12 3 -19 0
5 49 -31 0
70 -23 58 0
-34 -17 61 0
-50 11 45 0
45 -43 26 0
11 -28 45 0
56 40 20 0
45 -36 29 0
70 -65 29 0
-37 -44 -30 0
-6 -30 69 0
29 21 -5 0
13 -69 61 0
-35 -13 -5 0
-13 -19 -53 0
-17 -16 -48 0
-69 -48 -12 0
68 -34 8 0
-48 41 43 0
57 -44 -67 0
25 -30 -14 0
-39 7 27 0
-62 52 -41 0
18 8 -66 0
32 -56 -13 0
35 -42 -2 0
-27 64 -46 0
37 -69 -47 0
60 6 -21 0
-39 -51 11 0
-13 -34 -35 0
-57 28 -19 0
27 -45 9 0
41 -61 27 0
-17 66 -16 0
-11 39 -61 0
64 -60 58 0
18 5 62 0
-5 62 4 0
67 4 29 0
3 -10 -59 0
-64 24 60 0
-26 64 -18 0
-19 10 36 0
-14 70 -54 0
10 -26 53 0
1 35 65 0
-32 21 -6 0
-25 -68 52 0
58 28 -14 0
-8 20 41 0
69 -44 -54 0
-61 39 -35 0
58 13 -29 0
16 34 22 0
20 43 24 0
-13 27 7 0
17 -56 -53 0
-50 -57 -10 0
4 -21 -44 0
-69 68 -35 0
36 -15 -21 0
-55 37 -10 0
-58 18 -12 0
70 36 -35 0
-42 -23 21 0
-63 69 -18 0
-63 57 -22 0
36 32 7 0
48 1 -7 0
28 -20 -11 0
-13 41 -15 0
-10 15 -42 0
14 -3 -31 0
45 35 51 0
39 -60 52 0
42 -58 -40 0
3 -58 -17 0
-64 70 -45 0
29 -12 39 0
52 -20 -70 0
-70 -59 61 0
-49 -18 63 0
-52 -54 12 0
19 -39 56 0
-14 -64 -59 0
47 56 37 0
63 15 22 0
2 4 -8 0
-42 7 -69 0
-5 -11 63 0
18 -50 -70 0
-59 32 -30 0
-69 -56 67 0
5 52 -57 0
-31 -66 -48 0
-42 26 47 0
-7 -21 58 0
37 -36 -27 0
-57 -48 24 0
-4 55 -15 0
-15 3 -57 0
25 -59 -22 0
-3 20 -39 0
27 47 54 0
-32 8 -61 0
66 -55 -47 0
62 -44 59 0
14 -17 60 0
64 -31 63 0
52 47 -21 0
-51 -15 -5 0
1 -2 -16 0
-40 10 -64 0
-5 50 -39 0
-26 -49 45 0
-16 -18 -67 0
-9 19 -10 0
38 2 -43 0
-4 42 -70 0
66 5 38 0
-37 13 41 0
-18 -56 65 0
6 33 -38 0
-43 -47 6 0
-42 47 -37 0
54 47 20 0
-48 -36 -4 0
64 28 -21 0
48 -23 -50 0
20 3 -13 0
-38 -24 -51 0
39 -5 66 0
-23 -60 5 0
-62 47 -10 0
-39 37 -19 0
-26 -24 44 0
30 32 59 0
59 -35 69 0
35 42 66 0
35 34 36 0
43 18 59 0
19 -26 -36 0
-62 -53 11 0
-22 51 -68 0
64 46 -42 0
-65 62 7 0
