p cnf 70 295
-37 -2 -13 0
44 11 -59 0
57 6 61 0
67 -52 19 0
43 -64 2 0
32 48 -63 0
40 39 -2 0
-64 -46 8 0
-9 -27 -11 0
42 -6 12 0
-30 -29 -69 0
63 12 -31 0
-10 20 29 0
-68 16 -26 0
21 15 25 0
-52 -28 61 0
-56 18 9 0
-9 -3 -23 0
-17 39 49 0
55 29 4 0
46 -59 16 0
-2 66 -27 0
-2 43 70 0
-43 -3 -24 0
55 -59 -28 0
-33 36 -5 0
2 -54 -58 0
22 -9 -30 0
-68 -1 4 0
26 3 63 0
-10 -19 40 0
6 -27 -64 0
-31 34 63 0
-33 55 -38 0
36 50 -65 0
-54 -22 19 0
-38 39 18 0
-59 65 -6 0
-18 -62 -5 0
33 -53 -64 0
41 -36 -8 0
68 -5 -28 0
-41 24 62 0
-47 25 -49 0
33 6 43 0
-62 -8 31 0
-62 13 -41 0
-40 42 -26 0
69 44 -36 0
-66 -26 -30 0
9 -23 27 0
-53 -21 -44 0
29 53 -37 0
39 51 33 0
9 65 -8 0
55 -16 -51 0
-55 61 10 0
-18 10 -6 0
49 -70 -11 0
22 -29 -21 0
-31 59 -43 0
17 -11 -32 0
-45 54 60 0
-61 -30 47 0
20 4 56 0
42 -68 1 0
-6 -59 -23 0
31 -3 68 0
-16 22 31 0
-64 53 -10 0
19 -33 61 0
-60 -16 -6 0
-40 -36 55 0
9 7 -58 0
64 11 14 0
-32 -37 -49 0
61 70 63 0
37 -36 -70 0
40 -22 -29 0
21 51 59 0
-50 -34 37 0
28 14 63 0
37 -31 -6 0
18 31 53 0
-2 -59 9 0
17 12 -60 0
-43 -60 51 0
38 55 -20 0
-6 63 -36 0
-25 -63 44 0
57 -64 -30 0
61 -11 -52 0
-24 29 27 0
19 -18 6 0
-15 -9 35 0
-12 67 -18 0
-57 24 -30 0
-44 63 68 0
-48 20 19 0
64 53 40 0
-27 55 59 0
-50 65 -67 0
-20 -16 -38 0
70 36 52 0
14 -8 -30 0
-36 39 -34 0
-55 -36 -28 0
47 -32 19 0
-21 27 -48 0
-44 -22 8 0
-44 36 -67 0
36 -5 -42 0
44 17 12 0
42 7 -32 0
-23 50 27 0
-49 64 19 0
-42 -18 53 0
28 23 -17 0
-25 -5 23 0
-26 70 -51 0
-49 40 -47 0
-39 61 -70 0
68 -62 -6 0
62 42 -27 0
30 -37 -57 0
53 36 -49 0
62 27 25 0
-51 -23 -38 0
-9 -2 -59 0
-61 50 15 0
-61 -17 68 0
-18 -1 25 0
-21 14 29 0
51 -10 62 0
55 -52 51 0
-21 5 48 0
-45 -53 22 0
54 -50 -14 0
5 -66 69 0
7 -30 -47 0
5 -10 -18 0
13 -68 44 0
-6 35 -61 0
-14 -17 -60 0
-65 -8 -48 0
-18 25 -56 0
-52 33 32 0
25 -61 21 0
64 -52 -56 0
-15 7 24 0
-53 9 -20 0
-12 -50 -39 0
36 43 14 0
44 -62 -2 0
-43 65 -58 0
-3 -37 -32 0
-59 36 -14 0
48 18 51 0
-68 67 19 0
52 51 -19 0
-36 -44 -12 0
-20 62 50 0
-56 59 20 0
17 48 30 0
-38 16 48 0
38 6 10 0
22 -39 -38 0
21 53 -49 0
-32 31 29 0
12 63 -37 0
-60 44 -17 0
-5 16 -40 0
16 50 11 0
-29 -5 32 0
47 33 -43 0
4 18 -51 0
-45 57 -28 0
47 -24 20 0
9 44 -6 0
59 16 -17 0
66 -14 22 0
-38 53 -8 0
33 -1 -68 0
41 -59 -55 0
12 -11 63 0
-36 -40 -53 0
31 -49 -16 0
-12 -37 28 0
-64 -12 -54 0
-19 -48 69 0
-28 -70 54 0
-8 53 -19 0
7 -57 -49 0
58 -20 -18 0
64 -26 -3 0
48 68 55 0
24 -48 56 0
25 -5 54 0
-32 -67 -52 0
11 42 -69 0
2 -59 -39 0
18 13 51 0
-12 52 -65 0
-4 24 -46 0
-17 15 -53 0
-46 -32 -14 0
4 62 29 0
-20 21 -66 0
62 59 19 0
-49 -12 -26 0
-32 18 55 0
3 13 -41 0
-1 -33 17 0
39 -35 -67 0
-17 41 68 0
25 -3 65 0
56 43 -42 0
-53 -31 -54 0
29 -26 -47 0
-12 -23 59 0
48 19 59 0
29 -1 -23 0
-8 -29 64 0
33 -62 -50 0
55 -24 -27 0
20 67 35 0
-21 -13 60 0
47 44 -39 0
-26 60 -52 0
-20 67 65 0
-19 64 -49 0
-62 40 -61 0
1 -33 -25 0
-70 39 29 0
44 -56 -2 0
-52 -16 51 0
-14 49 37 0
36 57 12 0
67 -53 -21 0
-69 -3 -33 0
-6 -8 -12 0
-5 41 -11 0
-20 54 -58 0
65 -60 13 0
4 3 22 0
-61 34 -15 0
5 47 21 0
-24 65 35 0
-13 -49 19 0
-18 -15 -32 0
37 -38 -42 0
43 -67 8 0
65 12 -62 0
-35 20 5 0
29 5 -39 0
45 67 21 0
-45 -34 48 0
59 26 30 0
-20 43 40 0
-56 -22 -13 0
-27 -59 25 0
-5 -18 41 0
-34 -22 40 0
-31 -57 7 0
-41 56 28 0
61 -4 -35 0
-56 55 67 0
46 -29 -21 0
-58 46 -56 0
67 17 -31 0
14 -44 24 0
27 17 23 0
-56 48 22 0
49 70 67 0
-20 -57 3 0
-20 -37 -52 0
56 31 -27 0
-28 -40 41 0
2 6 68 0
-64 -44 34 0
55 -57 -64 0
27 -66 21 0
-15 -36 -30 0
-9 45 -48 0
-33 66 19 0
68 42 -38 0
44 -29 -53 0
-55 40 -56 0
-28 57 -32 0
29 -12 -1 0
59 44 -22 0
-50 17 11 0
-36 18 46 0
-21 16 -61 0
6 -15 -49 0
