p cnf 70 305
-12 59 33 0
33 -15 31 0
59 5 56 0
-25 1 -19 0
-66 -7 -16 0
-13 34 -39 0
-5 67 -4 0
64 -45 -61 0
5 37 8 0
48 20 70 0
35 54 19 0
-21 66 -45 0
44 56 -33 0
48 -45 -62 0
-42 -7 13 0
-47 -57 58 0
36 21 -6 0
-30 68 63 0
15 -45 -40 0
-52 59 -8 0
25 -49 -50 0
36 -46 -49 0
25 -45 36 0
29 56 -62 0
-2 59 -58 0
66 -58 -37 0
8 15 50 0
54 24 -46 0
55 -10 27 0
68 69 46 0
62 -23 18 0
47 -25 -24 0
63 53 -35 0
67 34 22 0
-33 -52 69 0
-41 45 -63 0
-26 17 -44 0
-5 -41 65 0
17 -66 -42 0
-27 14 16 0
38 55 -28 0
12 -10 -22 0
36 56 -49 0
-59 36 -28 0
53 35 -10 0
-3 18 -13 0
-42 6 -3 0
-60 -70 -15 0
-37 43 30 0
22 -20 18 0
-18 22 -8 0
45 -47 -64 0
-50 -4 70 0
40 54 62 0
44 -22 -17 0
-40 -50 66 0
-1 -70 -8 0
21 -22 69 0
-52 66 67 0
-60 64 -62 0
46 33 -22 0
-53 -32 27 0
-61 -51 -4 0
25 -2 37 0
-64 -35 30 0
47 -30 40 0
36 43 42 0
28 -63 41 0
-43 -7 -46 0
33 25 65 0
-54 62 -4 0
-29 53 -25 0
37 -44 66 0
-37 -50 -39 0
-49 17 -19 0
-10 25 -11 0
-26 54 70 0
14 68 -53 0
15 19 -66 0
-29 10 -65 0
43 -65 21 0
-48 -63 -2 0
-70 -40 -37 0
37 -64 39 0
-4 12 7 0
-1 -37 65 0
42 -12 -11 0
23 -48 50 0
-63 -65 17 0
43 49 11 0
62 -7 -53 0
39 15 30 0
-56 26 -8 0
6 -44 -47 0
-20 -27 -62 0
-34 70 63 0
16 -7 -41 0
31 9 24 0
4 -62 30 0
-67 -7 -17 0
-66 53 21 0
-13 19 4 0
49 -67 -44 0
22 -20 -42 0
-3 -27 61 0
-32 3 -61 0
52 64 15 0
27 -47 -59 0
62 -67 33 0
56 15 -5 0
-18 60 -53 0
-35 -64 -36 0
52 -62 -53 0
68 -6 51 0
-36 62 32 0
30 45 7 0
-24 -27 -44 0
-26 -67 17 0
11 40 -51 0
-4 48 8 0
-37 52 -17 0
69 -22 25 0
-15 -12 -53 0
-14 -40 -47 0
-70 -28 -53 0
31 -14 -3 0
7 -55 70 0
-18 -19 -61 0
64 67 -55 0
22 20 28 0
-23 -4 -70 0
-51 32 -38 0
-22 64 -66 0
44 43 1 0
-21 -64 -8 0
27 -49 11 0
22 -50 62 0
-37 6 55 0
-42 -16 59 0
-35 -4 8 0
7 43 -15 0
4 12 2 0
48 -4 -23 0
53 48 -61 0
15 -24 -4 0
32 9 36 0
37 19 40 0
61 52 42 0
-30 62 -56 0
-11 69 -8 0
36 -20 26 0
70 67 -1 0
41 -17 -64 0
59 40 48 0
-6 25 38 0
-52 -7 1 0
7 16 -1 0
-22 -36 14 0
-68 50 -63 0
-6 -21 64 0
4 -17 6 0
-12 -54 -52 0
29 -36 2 0
67 41 65 0
-68 61 49 0
37 58 -64 0
-65 38 28 0
-54 28 50 0
12 40 57 0
-46 -13 29 0
-60 -68 -47 0
31 -66 -44 0
35 -38 -14 0
-11 55 -41 0
-67 28 -27 0
-47 -36 -37 0
14 -57 -1 0
-54 -33 65 0
-60 -10 50 0
59 -23 46 0
53 47 -52 0
-53 -13 54 0
-12 -65 50 0
-39 22 55 0
-35 -3 -36 0
-17 43 8 0
-29 13 6 0
-34 -46 29 0
-32 16 68 0
37 58 6 0
28 -9 -51 0
-22 43 -13 0
4 69 33 0
33 56 -45 0
56 -55 53 0
-62 -3 -9 0
-37 -68 -67 0
39 10 41 0
-12 -46 -63 0
-32 -69 50 0
-56 64 18 0
-38 -47 9 0
56 -1 -55 0
53 29 66 0
63 55 48 0
-55 24 61 0
-45 -14 19 0
-33 -11 -52 0
-3 -30 67 0
37 23 36 0
20 4 58 0
-59 11 45 0
45 4 -18 0
7 35 -18 0
-56 49 13 0
40 69 26 0
59 -42 -68 0
-55 -56 -3 0
46 -25 -39 0
17 27 45 0
-15 -36 -32 0
42 -47 -51 0
30 24 60 0
-29 52 -50 0
62 -18 -20 0
67 7 44 0
18 -40 32 0
-26 -13 35 0
-39 -9 16 0
69 -9 -45 0
67 -28 -47 0
-50 -54 29 0
-19 -51 -8 0
52 -17 38 0
59 24 11 0
-35 -64 -38 0
11 61 -2 0
-10 -29 2 0
44 -47 -55 0
25 -31 -63 0
-49 -70 13 0
-63 70 32 0
-25 29 4 0
48 -8 58 0
-35 70 16 0
33 28 -57 0
55 -62 39 0
31 49 -16 0
-44 51 47 0
26 30 56 0
-28 55 59 0
51 5 -47 0
30 -1 -66 0
65 -9 -24 0
63 -14 -70 0
-38 -16 -37 0
-45 -21 69 0
32 12 -34 0
-33 -28 -4 0
-34 5 -64 0
42 26 -31 0
-61 1 35 0
50 -14 67 0
20 50 -46 0
40 -38 -30 0
44 -62 -57 0
-12 -26 -67 0
10 61 47 0
-27 58 35 0
-35 23 -21 0
23 -29 -25 0
8 58 -45 0
-63 4 64 0
47 55 20 0
-55 66 -52 0
35 10 -42 0
-58 30 -64 0
-48 -62 -50 0
55 -12 26 0
59 50 -69 0
-4 52 1 0
53 -64 -52 0
-31 50 -11 0
36 14 23 0
-56 69 24 0
-64 -10 70 0
-34 61 43 0
-63 17 -43 0
23 -62 -11 0
-69 45 22 0
-24 -32 -55 0
-11 -21 -12 0
47 14 44 0
-17 52 39 0
-60 46 -9 0
46 45 23 0
-66 -61 -30 0
43 -28 61 0
25 3 15 0
-45 -52 10 0
-15 -30 47 0
18 10 3 0
55 61 11 0
34 -53 -32 0
20 23 -1 0
