p cnf 70 265
-18 38 31 0
42 -58 -64 0
25 -48 60 0
18 -53 -9 0
58 25 -4 0
-40 -29 -48 0
-58 -13 -41 0
-24 -43 -51 0
-46 -26 43 0
-11 -2 28 0
-64 -62 -54 0
32 -26 42 0
-60 48 45 0
-52 -29 -41 0
7 10 33 0
-60 -25 -12 0
9 40 -21 0
-5 -67 41 0
-18 32 2 0
-5 45 -35 0
50 -56 63 0
2 -33 55 0
-12 35 -65 0
-62 -38 25 0
37 -52 20 0
14 -21 23 0
12 11 -22 0
19 -41 30 0
-63 56 8 0
28 -66 -60 0
-70 -4 44 0
-53 -3 6 0
31 43 28 0
-15 -40 -18 0
-1 -53 -42 0
-65 22 -55 0
-53 5 -23 0
-16 -70 -31 0
69 -41 44 0
19 70 -62 0
1 36 -24 0
43 4 18 0
-62 14 -17 0
-66 65 43 0
46 -10 9 0
61 41 42 0
-30 23 -4 0
-4 33 60 0
59 43 39 0
-35 23 -37 0
39 17 12 0
-11 38 70 0
-32 -47 -63 0
68 -56 -34 0
-57 -46 40 0
25 -4 -42 0
-24 -4 49 0
-20 -52 9 0
41 -27 10 0
-25 54 -55 0
-23 -57 44 0
-47 26 56 0
-52 -32 56 0
4 -43 58 0
57 -46 -63 0
14 -70 -24 0
27 65 9 0
9 -20 -56 0
-1 19 -47 0
-16 -42 5 0
31 69 -40 0
50 14 -41 0
8 13 4 0
46 -42 -28 0
-1 -54 -22 0
-67 -46 23 0
56 -6 -62 0
-33 70 -8 0
2 -52 37 0
-34 -22 -44 0
-51 -43 -57 0
6 -2 -63 0
-4 39 1 0
27 -30 42 0
-67 -8 -53 0
49 -18 -29 0
64 15 63 0
47 49 59 0
-1 -15 3 0
-6 57 -48 0
4 30 -16 0
47 -40 -17 0
-57 -48 -15 0
-47 -15 60 0
4 2 -41 0
-47 -25 -5 0
-60 44 -24 0
41 -62 -67 0
40 -23 30 0
53 -16 -24 0
-11 -23 18 0
-13 -24 10 0
12 15 -16 0
14 65 28 0
61 46 19 0
-20 67 70 0
-4 21 63 0
-37 8 70 0
-34 7 -48 0
53 -63 11 0
47 -67 -70 0
68 34 39 0
28 38 20 0
58 22 6 0
30 55 -11 0
20 -68 -50 0
-30 35 -10 0
-21 -14 -9 0
5 23 -14 0
32 -50 59 0
43 63 69 0
24 -2 70 0
46 -59 33 0
64 3 -67 0
27 -25 -14 0
-39 32 -55 0
-6 4 -32 0
47 -13 4 0
-6 -36 13 0
45 58 5 0
-2 33 -29 0
22 -35 -70 0
64 20 37 0
-33 22 6 0
-36 64 35 0
-15 -49 -26 0
-48 55 50 0
50 7 43 0
-35 -64 2 0
66 62 -47 0
-16 -18 58 0
8 -1 50 0
-34 4 -43 0
7 36 -46 0
-39 -17 -21 0
17 12 -42 0
-53 -18 24 0
-58 30 11 0
17 18 -9 0
-53 -69 -8 0
5 -67 65 0
60 9 68 0
-35 -69 -55 0
25 -36 69 0
45 -22 27 0
-29 -43 24 0
-15 38 19 0
-27 -65 -60 0
-16 -13 -32 0
13 52 -35 0
-52 -12 -38 0
51 -31 59 0
-68 60 -53 0
18 -60 65 0
52 2 -13 0
36 7 -46 0
-58 -66 49 0
-6 8 -22 0
-63 53 47 0
-14 59 -54 0
58 37 57 0
-55 -23 -5 0
17 -29 -45 0
-1 -47 62 0
48 -44 -67 0
39 -68 67 0
-57 25 -16 0
-17 34 28 0
-18 56 10 0
-26 -19 -42 0
-37 -15 -14 0
-51 -24 -43 0
4 60 5 0
59 -40 -3 0
58 -49 18 0
-40 55 -51 0
-48 30 33 0
-68 -26 24 0
-65 30 -54 0
6 -68 4 0
22 -50 -27 0
51 -32 -48 0
9 41 -3 0
-28 65 34 0
66 15 -50 0
22 -51 -50 0
4 10 67 0
20 -66 46 0
13 56 42 0
-8 14 61 0
2 -8 13 0
11 55 18 0
57 18 33 0
-50 20 -9 0
-23 39 49 0
-48 63 -24 0
33 36 4 0
-69 -13 67 0
-50 43 31 0
45 -26 29 0
-33 -35 14 0
46 -69 -7 0
52 -6 -11 0
44 -68 -36 0
-49 -32 15 0
-17 -37 -24 0
29 -31 30 0
38 -25 -6 0
58 -46 -45 0
-14 -22 42 0
-31 16 -47 0
-24 -25 11 0
61 42 50 0
32 -24 4 0
38 -69 40 0
51 -35 -8 0
30 -55 -18 0
-37 -69 -68 0
60 28 -31 0
40 -3 35 0
37 53 -2 0
62 32 38 0
-25 -36 20 0
22 -47 23 0
19 67 -49 0
-14 -62 55 0
-36 -13 -55 0
58 36 46 0
-59 -63 -20 0
-38 -20 -13 0
-12 27 54 0
-29 -30 7 0
-11 -27 -16 0
-42 -58 34 0
46 6 -3 0
-9 -46 -10 0
10 -11 -31 0
24 -32 -28 0
39 -4 -43 0
-20 46 31 0
-52 41 18 0
25 26 -3 0
30 -24 60 0
2 68 27 0
25 11 24 0
-53 -59 28 0
43 -68 6 0
17 -30 -35 0
16 29 -18 0
8 -39 -17 0
32 20 5 0
-26 36 -51 0
66 45 -4 0
16 43 2 0
34 -36 -5 0
