p cnf 70 285
-3 46 58 0
69 12 68 0
-53 47 44 0
59 -23 37 0
-33 50 -47 0
63 52 15 0
36 35 25 0
-2 29 -5 0
-17 -12 8 0
-46 -37 2 0
-64 32 -31 0
-32 -14 -67 0
45 -39 -37 0
-1 16 27 0
11 42 36 0
-53 21 44 0
47 8 -40 0
1 62 -20 0
-45 33 -51 0
-50 -61 -34 0
44 -26 41 0
-69 -17 -65 0
59 30 12 0
12 26 25 0
-54 27 44 0
-37 -32 31 0
-1 -55 11 0
48 50 43 0
-46 -24 27 0
-32 -43 -52 0
69 42 4 0
-9 23 45 0
22 -28 -52 0
-19 -34 59 0
-42 45 49 0
12 -68 -44 0
-68 -25 12 0
42 2 61 0
3 -40 -43 0
-11 -63 42 0
-35 -43 66 0
-33 -8 15 0
64 -67 -32 0
-66 21 -56 0
-19 -52 3 0
-70 -28 53 0
56 -31 -4 0
-17 -21 22 0
26 59 -36 0
66 44 -16 0
48 -46 -58 0
-59 29 -16 0
66 14 58 0
-60 59 52 0
49 -15 -45 0
58 -65 -1 0
13 -61 -30 0
28 -64 -48 0
-4 -38 28 0
42 32 -5 0
68 63 35 0
59 17 -2 0
14 31 -67 0
9 -68 -35 0
9 -15 -20 0
-49 -17 -31 0
-16 68 -62 0
24 12 -62 0
-54 -58 -21 0
24 -59 -15 0
-16 37 -38 0
-20 5 13 0
52 47 -6 0
-28 -10 36 0
7 15 -47 0
-25 13 21 0
55 -50 59 0
28 30 31 0
45 17 -40 0
18 14 -5 0
-2 -21 -52 0
-52 38 45 0
-68 -61 -63 0
64 -13 -59 0
-50 36 -2 0
64 -14 -48 0
-15 37 49 0
-27 -8 13 0
65 -39 -69 0
30 -23 68 0
20 54 29 0
60 -30 55 0
-3 -32 -14 0
-68 -51 -49 0
-34 66 38 0
65 -9 -67 0
-70 10 -56 0
-52 -46 63 0
49 -64 -36 0
29 -59 -56 0
38 -15 32 0
-65 -15 -5 0
23 -64 -56 0
12 -6 -51 0
-28 69 16 0
65 -28 -53 0
70 55 19 0
38 30 15 0
57 -31 -7 0
-61 -22 70 0
8 1 -66 0
-4 66 -19 0
-46 -20 -50 0
-59 9 35 0
37 49 -13 0
-38 32 -65 0
56 -55 70 0
-35 59 -23 0
44 14 -51 0
60 69 -25 0
57 35 22 0
-61 62 -44 0
43 39 -9 0
22 -44 6 0
36 31 38 0
35 -16 -43 0
55 56 -52 0
30 59 61 0
-41 36 45 0
7 2 -13 0
59 -58 -5 0
-46 -64 -7 0
-49 -47 10 0
40 16 -49 0
20 -15 61 0
-12 33 44 0
13 29 39 0
-52 46 2 0
10 -39 20 0
54 -12 -37 0
-30 28 18 0
30 60 5 0
-39 -9 35 0
-13 29 -40 0
47 51 33 0
6 65 -43 0
-63 66 10 0
22 4 11 0
-63 32 57 0
-64 -59 41 0
36 -30 -61 0
-22 40 -24 0
-14 -32 44 0
54 -59 -53 0
44 -8 -30 0
-29 -21 -23 0
14 54 -62 0
55 -57 13 0
37 7 61 0
-11 22 -28 0
-50 56 -29 0
34 40 -7 0
-59 -43 21 0
-60 63 44 0
-21 -69 -18 0
-28 -7 60 0
-22 -15 -48 0
69 22 -10 0
4 -36 62 0
-40 -5 65 0
-15 -68 12 0
-6 -45 5 0
59 -4 -60 0
56 -21 -62 0
-11 6 50 0
27 55 -49 0
-15 3 66 0
-9 -62 7 0
-21 -17 60 0
-57 13 -37 0
59 9 29 0
67 15 11 0
-38 -17 -43 0
-67 -24 -47 0
58 6 -13 0
28 -54 -23 0
3 2 -34 0
-64 -34 47 0
68 27 -6 0
21 34 -20 0
-44 53 25 0
33 -50 -55 0
11 -6 65 0
-39 -2 -16 0
-56 48 -39 0
26 45 25 0
29 -8 -25 0
3 -22 -41 0
50 38 64 0
-1 -59 58 0
-35 70 64 0
5 64 46 0
-42 30 -65 0
13 40 -21 0
22 -58 -52 0
17 -55 63 0
-34 -15 -32 0
-7 -49 58 0
-5 25 20 0
55 29 25 0
56 -33 52 0
-43 -2 -35 0
-12 -35 30 0
52 60 9 0
-48 56 69 0
-13 -21 6 0
21 30 -27 0
69 -54 8 0
42 46 -57 0
-53 54 61 0
-24 29 -59 0
52 -25 -44 0
-1 22 -63 0
64 -68 -44 0
-16 19 18 0
-26 67 -59 0
44 -55 63 0
59 -25 -30 0
-7 -40 -38 0
-66 67 49 0
26 -33 36 0
2 -62 58 0
-4 29 -42 0
66 -19 -47 0
-64 59 -70 0
-41 46 36 0
15 -51 -41 0
-62 -46 -41 0
63 -40 52 0
-27 -7 -6 0
18 -33 13 0
53 47 48 0
-48 -19 -18 0
-2 -20 6 0
-43 -53 37 0
12 64 31 0
29 -20 -59 0
14 -34 -1 0
9 -39 -40 0
21 66 -37 0
58 64 -29 0
-15 62 19 0
22 9 -1 0
-54 -28 40 0
-32 -8 41 0
27 -58 -8 0
69 -67 -45 0
-45 -5 12 0
26 51 11 0
-6 35 55 0
-65 61 -40 0
-50 -69 54 0
-17 -56 -44 0
-28 -1 69 0
32 -13 31 0
15 -4 36 0
-27 -14 -20 0
42 27 -10 0
37 56 7 0
-21 -34 -49 0
-69 18 13 0
6 59 58 0
60 19 -29 0
-37 -21 20 0
37 57 39 0
18 -66 -62 0
-61 -35 52 0
-19 61 17 0
-34 -69 -47 0
34 20 51 0
39 53 49 0
-45 15 46 0
-15 -36 19 0
50 11 55 0
-1 -27 53 0
