p cnf 70 285
7 64 58 0
52 12 -56 0
-68 -25 -63 0
-18 34 48 0
-29 -14 17 0
-25 45 -47 0
-42 48 29 0
-8 -22 47 0
-63 10 40 0
-69 -68 -60 0
-16 -20 -6 0
-9 -27 18 0
-10 12 -40 0
-35 5 -48 0
1 50 -44 0
26 56 -61 0
-37 62 40 0
55 -51 1 0
31 45 -19 0
62 56 -18 0
-22 62 2 0
25 -42 60 0
-55 30 29 0
26 8 13 0
31 -70 -14 0
33 36 5 0
-30 4 8 0
-2 48 30 0
56 19 -62 0
-38 -23 -32 0
-53 -40 43 0
-56 1 -61 0
32 9 33 0
1 -43 16 0
15 11 -24 0
-68 -26 52 0
41 19 -59 0
-6 32 -26 0
-34 26 28 0
14 8 -52 0
67 25 40 0
8 -46 -9 0
26 -6 30 0
-60 66 15 0
68 -2 66 0
-17 -26 -35 0
48 9 38 0
-65 26 -54 0
-59 -51 31 0
26 -46 11 0
-15 -25 58 0
38 -10 -46 0
65 -2 -64 0
13 21 34 0
-31 57 -18 0
28 63 -37 0
-14 -53 -2 0
-29 -50 -67 0
12 48 -16 0
-26 53 -1 0
24 35 55 0
51 -17 -4 0
21 -25 46 0
55 -62 43 0
-67 47 -69 0
-45 -42 -27 0
30 28 -15 0
24 12 17 0
-41 -40 -30 0
16 41 3 0
-50 55 60 0
59 22 63 0
-31 3 -12 0
19 -55 70 0
13 67 68 0
65 22 -51 0
-31 -42 -32 0
62 3 -66 0
-56 -21 -66 0
-57 43 -8 0
-48 29 -16 0
8 -19 57 0
31 -61 -44 0
16 17 38 0
36 19 32 0
65 -25 44 0
-58 70 31 0
-14 -15 -5 0
-24 -2 47 0
36 -32 20 0
10 -52 -14 0
-55 63 52 0
34 64 52 0
-11 15 1 0
-32 53 18 0
20 61 -31 0
-66 37 63 0
-22 8 27 0
-64 -59 33 0
18 -32 -16 0
12 47 -30 0
21 44 -31 0
-27 -13 4 0
26 -6 45 0
18 8 -22 0
-43 -42 -28 0
12 -27 -4 0
20 -43 -34 0
32 38 20 0
-45 42 -3 0
28 -19 29 0
33 49 2 0
7 -48 -37 0
-48 3 -23 0
30 14 60 0
47 -53 21 0
38 51 15 0
46 -43 11 0
70 25 44 0
-2 -60 30 0
20 37 29 0
57 64 -25 0
-24 19 -44 0
40 10 15 0
-14 47 57 0
-53 -57 -23 0
8 49 -59 0
61 27 -32 0
21 9 49 0
-47 52 -15 0
43 28 -65 0
33 41 29 0
7 36 -6 0
21 60 69 0
65 64 -59 0
-44 5 3 0
70 -62 -44 0
-2 -16 -17 0
-3 11 -8 0
-68 7 -52 0
-18 -36 19 0
68 -27 35 0
25 -4 -61 0
32 58 -4 0
19 -13 66 0
70 69 -66 0
57 4 -30 0
49 -47 -16 0
-61 62 -11 0
62 28 -18 0
-66 -11 -7 0
4 26 53 0
-16 55 13 0
1 -30 -37 0
-54 29 -60 0
-44 36 -40 0
6 24 -52 0
-16 -56 -42 0
35 -25 44 0
-27 58 -21 0
-60 29 3 0
13 -29 -6 0
-24 -45 42 0
-12 -22 56 0
-44 14 17 0
-5 55 -51 0
69 -58 20 0
14 34 -17 0
51 -9 -13 0
-60 44 -50 0
16 43 -47 0
30 22 23 0
-29 67 -34 0
45 25 -34 0
4 6 -21 0
-23 6 22 0
8 44 -62 0
60 38 44 0
32 -37 -1 0
3 65 -51 0
56 -24 50 0
-60 -63 9 0
-11 -24 50 0
18 38 -14 0
-45 -39 64 0
-37 -68 38 0
44 45 50 0
26 -25 34 0
61 -60 -65 0
-54 56 59 0
-29 -4 -31 0
-25 -49 2 0
-30 53 66 0
57 15 -3 0
12 -25 36 0
27 23 -10 0
25 51 11 0
2 70 53 0
-58 -55 59 0
33 -55 34 0
60 -1 -16 0
5 -65 -13 0
-10 49 11 0
-4 -39 -42 0
46 -14 -32 0
-52 -34 -41 0
-66 61 59 0
-57 12 -58 0
-29 -54 -12 0
-38 20 -37 0
10 -9 52 0
38 52 -61 0
8 1 16 0
-9 -13 33 0
-19 -45 22 0
-21 -2 47 0
62 -49 -56 0
-49 -32 60 0
18 -61 34 0
42 -58 14 0
-21 -14 64 0
-3 5 52 0
-62 -56 38 0
36 64 22 0
-23 3 25 0
-21 43 -65 0
-49 17 -44 0
-5 -51 6 0
-65 -3 -26 0
34 -23 -63 0
49 24 52 0
63 -13 -1 0
-30 -4 -52 0
-27 -61 -1 0
64 8 -39 0
6 7 -59 0
28 -25 13 0
-35 55 -39 0
63 -45 -48 0
26 -48 53 0
17 28 26 0
40 10 -35 0
-27 9 -55 0
10 43 -30 0
5 38 10 0
25 -35 -17 0
-40 39 -29 0
27 -20 3 0
-46 31 9 0
-8 -36 -56 0
-21 20 60 0
-63 35 41 0
-48 35 -26 0
-55 24 -41 0
-53 -2 -59 0
-3 -2 -45 0
-5 16 -61 0
-48 49 27 0
-69 60 46 0
46 21 -12 0
-46 49 32 0
69 1 -17 0
28 43 -34 0
-64 -65 -49 0
-43 37 48 0
-18 28 -30 0
2 -21 20 0
-46 -18 -15 0
23 -66 16 0
59 -4 -19 0
27 14 -29 0
-37 64 8 0
-70 -15 -20 0
44 10 -59 0
-28 55 63 0
22 -13 64 0
18 -33 -15 0
55 51 48 0
-56 38 45 0
42 -29 -65 0
70 9 -31 0
45 25 -3 0
-21 -1 45 0
13 -55 21 0
-4 -58 -68 0
