p cnf 70 305
40 4 66 0
-3 -4 23 0
-31 -59 27 0
-36 11 -68 0
-56 -40 -10 0
7 18 5 0
11 34 42 0
-24 57 -43 0
-43 -66 58 0
-65 -53 6 0
-49 35 67 0
48 14 -66 0
-20 50 10 0
4 5 68 0
61 -66 19 0
-14 -6 -64 0
-62 30 48 0
12 -69 -1 0
-46 -6 47 0
-64 -32 52 0
-41 56 -51 0
31 14 65 0
-14 -57 -43 0
48 -62 -44 0
3 43 -14 0
54 -52 31 0
-60 -47 -66 0
52 38 -45 0
43 -14 -12 0
49 63 47 0
-69 29 -22 0
-25 -16 -50 0
-18 2 -47 0
36 -4 -24 0
60 -2 -34 0
61 -50 6 0
27 -49 18 0
43 21 1 0
-26 -23 12 0
-23 -19 -39 0
62 -38 51 0
-64 21 -23 0
-34 -26 62 0
-39 16 34 0
52 -42 -11 0
12 17 -45 0
-14 -67 -22 0
62 -69 -35 0
-24 1 66 0
29 -8 -54 0
-31 -22 -33 0
61 -18 68 0
6 -35 -1 0
-57 8 -17 0
4 -62 9 0
-19 10 14 0
61 54 58 0
-31 37 -55 0
-55 7 -3 0
10 5 70 0
-23 47 42 0
63 55 -43 0
-65 3 -39 0
-31 -32 18 0
-14 50 -42 0
-17 -1 -45 0
17 -23 59 0
-29 -63 -12 0
35 45 17 0
-2 -27 -56 0
-26 43 64 0
-38 -32 35 0
18 -39 -66 0
-36 14 12 0
-35 7 14 0
-19 -55 18 0
20 12 53 0
-46 -12 -47 0
-53 38 10 0
-11 6 67 0
47 10 -53 0
48 -59 -69 0
63 -20 -7 0
-18 37 51 0
-6 43 14 0
-25 16 44 0
3 13 -31 0
-32 16 -5 0
-8 24 56 0
4 48 21 0
-1 -45 -5 0
-22 40 -64 0
-29 -15 20 0
-53 -52 68 0
-14 -31 -15 0
27 29 -56 0
41 68 43 0
-5 26 58 0
-59 -29 -45 0
-51 -26 58 0
54 -51 -28 0
64 43 17 0
48 -29 -56 0
-32 -33 51 0
-22 -53 -29 0
33 -63 8 0
-25 55 4 0
57 -56 31 0
2 50 -25 0
-31 -45 -44 0
-5 48 -17 0
-36 31 -65 0
8 -50 12 0
34 63 5 0
-7 -46 -41 0
53 -16 -24 0
6 2 -42 0
11 -63 -42 0
-32 -1 -8 0
-41 -1 59 0
-31 -67 -46 0
-52 -49 -28 0
7 16 -10 0
38 37 40 0
64 39 -35 0
-31 -59 -38 0
5 8 32 0
35 45 -32 0
39 -55 50 0
16 -44 54 0
1 43 -5 0
-54 32 -70 0
-10 -70 -8 0
-21 70 17 0
-52 60 32 0
57 19 -21 0
-50 -44 69 0
-34 -48 -5 0
-14 23 24 0
13 56 -2 0
-58 2 -23 0
-4 -17 -41 0
-7 -30 34 0
12 33 -15 0
68 34 14 0
51 50 -68 0
-60 -46 48 0
-32 -34 50 0
7 33 -32 0
-59 -23 -49 0
-48 15 50 0
-29 40 22 0
-8 37 -34 0
29 45 -60 0
-10 -48 -56 0
-54 -45 -55 0
-33 -28 -15 0
-64 -52 -58 0
66 -56 -57 0
40 30 49 0
2 23 -48 0
-33 3 11 0
-65 64 53 0
57 -23 1 0
-25 28 -20 0
37 34 -48 0
20 21 -53 0
-28 -6 19 0
-58 29 42 0
66 2 -24 0
27 41 1 0
-33 16 42 0
-38 56 5 0
-29 -51 -3 0
-6 68 -7 0
-40 22 -42 0
-40 15 38 0
17 42 -14 0
14 41 -53 0
-16 -23 56 0
70 -20 -62 0
-51 45 5 0
68 -31 61 0
-25 2 -18 0
-8 63 9 0
34 30 6 0
-45 4 41 0
70 -31 -67 0
3 -23 -2 0
-54 -62 -29 0
39 11 -18 0
42 -15 -32 0
35 51 48 0
27 66 -14 0
-24 -50 13 0
19 -32 39 0
49 36 24 0
-49 38 -34 0
25 -69 -49 0
62 -6 25 0
-3 -30 -28 0
65 -24 12 0
-53 6 -63 0
-54 1 10 0
-53 -5 -31 0
43 64 31 0
70 -21 -20 0
-45 -47 23 0
-48 39 26 0
12 -43 39 0
-61 1 24 0
3 12 46 0
-43 -39 62 0
-56 -55 39 0
-34 25 -56 0
-5 -26 65 0
68 -66 40 0
3 42 -51 0
47 3 56 0
-69 7 -34 0
9 -65 54 0
46 48 -3 0
26 -3 45 0
67 28 49 0
-33 2 -28 0
37 -48 -12 0
30 -34 -18 0
-42 -49 9 0
-16 -7 -34 0
-23 -24 -31 0
-15 -17 32 0
45 62 68 0
21 62 70 0
1 35 -50 0
47 -50 3 0
15 -3 60 0
10 3 13 0
14 -10 -17 0
66 -61 -9 0
17 47 42 0
-37 21 66 0
-39 3 -70 0
20 25 49 0
-61 11 -10 0
49 -16 48 0
-66 -48 51 0
-13 65 45 0
2 -36 51 0
-8 49 -43 0
-1 -55 44 0
8 2 46 0
-66 -37 40 0
-52 -20 30 0
-45 -65 -63 0
-30 42 13 0
40 62 -25 0
51 -70 -28 0
-2 -11 -3 0
-70 44 27 0
44 -50 -52 0
52 10 -43 0
-52 36 -49 0
42 61 25 0
41 22 9 0
-15 5 -63 0
19 7 42 0
-28 25 -43 0
31 9 -44 0
-12 27 -51 0
19 -69 -64 0
-13 -25 -61 0
-59 39 -38 0
-55 42 14 0
-6 61 68 0
-26 70 -53 0
1 -53 -14 0
-44 6 68 0
-2 53 49 0
-65 -18 -40 0
21 68 61 0
-23 -51 -59 0
22 70 17 0
30 21 -62 0
56 42 12 0
-23 -1 49 0
33 -45 44 0
23 -42 9 0
-43 18 -48 0
-2 58 24 0
40 -5 14 0
51 -50 -14 0
47 -40 -10 0
26 32 58 0
-54 14 63 0
-63 16 2 0
36 41 -27 0
-4 -12 -10 0
2 -64 -34 0
-47 38 -41 0
35 17 -48 0
-38 -65 20 0
31 -4 46 0
-37 -10 49 0
49 -31 23 0
-29 -66 4 0
