p cnf 70 300
-66 37 -67 0
53 16 23 0
-61 47 33 0
-6 14 44 0
19 -57 -28 0
-12 25 31 0
59 -56 -2 0
-26 18 -28 0
-55 -30 -46 0
31 -11 -42 0
-20 43 -31 0
25 -37 -65 0
-69 -27 60 0
-3 -63 -18 0
-51 24 59 0
41 19 33 0
-12 -47 11 0
-12 67 -54 0
53 12 31 0
9 43 -61 0
49 -53 5 0
48 36 -49 0
30 19 11 0
36 -18 65 0
-39 -34 41 0
26 2 8 0
51 -32 -64 0
16 39 15 0
54 -59 64 0
43 63 22 0
-49 -24 -41 0
10 3 35 0
-26 7 -33 0
35 -42 -39 0
-64 41 28 0
22 37 27 0
-48 -43 27 0
6 -15 -53 0
-40 6 24 0
5 15 -69 0
-45 -30 -66 0
-5 6 15 0
-41 -33 -30 0
-32 24 -5 0
-42 19 -47 0
-37 -48 29 0
65 -41 44 0
-62 18 -23 0
-2 4 -33 0
30 66 -40 0
10 -15 58 0
12 33 58 0
12 30 -60 0
-44 -43 -19 0
16 -11 -15 0
15 -41 56 0
-45 -64 33 0
-3 39 -58 0
43 -27 47 0
34 49 15 0
-35 25 -64 0
3 -21 17 0
-58 67 -44 0
43 -23 38 0
53 -49 46 0
-52 54 -6 0
16 9 8 0
35 15 20 0
-63 -49 -45 0
-69 -35 -61 0
-26 -67 -22 0
46 24 -48 0
14 41 42 0
-51 4 60 0
-21 50 -1 0
34 5 -33 0
9 -63 50 0
-20 23 -40 0
49 6 -29 0
46 -67 -7 0
-54 35 63 0
19 -34 -63 0
61 -6 -50 0
-46 58 -54 0
-37 -38 66 0
35 16 41 0
-23 -14 46 0
13 28 -60 0
44 66 1 0
17 9 19 0
1 20 16 0
-34 -43 47 0
-28 66 44 0
24 46 1 0
-63 38 -13 0
-46 9 24 0
70 53 -49 0
68 -12 -6 0
-33 -20 -26 0
40 -8 -47 0
-57 11 -41 0
44 59 26 0
-42 40 58 0
-43 -29 -17 0
54 -25 11 0
-66 -26 -14 0
-33 -15 20 0
-50 13 8 0
31 10 61 0
-19 -69 17 0
26 60 -21 0
31 65 27 0
-45 -2 44 0
21 -5 -67 0
-14 -46 -39 0
-24 -18 68 0
44 49 36 0
25 55 5 0
-18 -37 -46 0
25 43 67 0
-55 5 -24 0
29 39 -45 0
59 52 54 0
69 56 41 0
-12 -55 15 0
47 41 61 0
20 -52 -27 0
49 -35 43 0
-67 -61 29 0
47 68 -8 0
-64 -65 -67 0
-41 -9 19 0
36 55 68 0
-35 -32 -59 0
-39 13 -16 0
-41 -60 -58 0
30 27 65 0
-4 39 -52 0
6 32 -45 0
-5 -10 -62 0
-63 -47 39 0
-11 41 -50 0
41 68 -49 0
55 67 -21 0
20 48 18 0
13 -3 37 0
1 -69 -40 0
-35 -26 27 0
-68 -49 -6 0
-35 -67 9 0
43 -23 -21 0
-11 3 -44 0
69 -66 -20 0
40 51 62 0
-44 -68 -27 0
51 48 9 0
-64 -11 -48 0
-31 43 22 0
-4 -52 -22 0
69 -18 5 0
-52 -6 -36 0
-19 27 -16 0
13 37 68 0
39 69 -59 0
35 -2 -34 0
69 -11 -63 0
-58 62 -43 0
52 -62 3 0
-57 -32 8 0
19 -28 21 0
11 41 -10 0
54 -30 60 0
51 55 58 0
13 -26 32 0
-51 -20 -61 0
70 43 16 0
-37 -18 17 0
-69 7 33 0
-41 53 8 0
3 25 -33 0
36 -28 34 0
64 70 -54 0
-28 -19 -35 0
36 19 -10 0
-67 1 -14 0
16 34 -15 0
-55 30 13 0
16 64 68 0
-30 33 5 0
-41 -50 -46 0
36 -57 -44 0
-17 -36 16 0
-55 26 -41 0
60 45 -52 0
-57 -2 -24 0
-60 52 22 0
7 -35 -50 0
51 57 36 0
24 -7 53 0
35 -58 -1 0
25 -38 -59 0
25 7 -35 0
-35 -46 -56 0
49 -69 -54 0
46 52 -55 0
65 15 37 0
-33 57 4 0
-64 -5 -12 0
16 -39 -12 0
-63 15 -1 0
-36 -52 65 0
2 -19 -34 0
44 -33 37 0
-60 69 -51 0
-40 64 -53 0
7 26 -10 0
59 56 -61 0
-31 35 8 0
44 -27 2 0
-47 50 -48 0
-41 46 1 0
-10 -12 -28 0
-24 17 58 0
-10 57 -54 0
54 -34 -56 0
43 -7 49 0
-5 62 -35 0
-5 49 -1 0
19 29 25 0
-21 -11 -49 0
33 62 56 0
-48 67 -15 0
-9 -21 -51 0
-69 -35 -48 0
-40 10 -46 0
7 58 -34 0
-69 -24 -25 0
69 -42 -23 0
27 36 49 0
-26 15 -10 0
31 -53 23 0
-25 48 -66 0
10 -60 -53 0
-46 35 -22 0
17 -48 2 0
-19 26 -39 0
59 -58 44 0
39 -28 27 0
60 -2 -67 0
-14 19 41 0
51 54 11 0
28 65 35 0
11 -22 -40 0
48 7 30 0
36 27 -6 0
-26 -49 48 0
-43 39 35 0
-48 35 -4 0
-20 58 64 0
-52 2 -53 0
-10 69 40 0
26 -66 61 0
32 67 51 0
-54 -68 55 0
-57 -41 -32 0
19 18 17 0
-14 -63 -28 0
64 68 -18 0
-25 -6 -58 0
-41 54 15 0
65 -30 43 0
18 51 36 0
11 15 67 0
7 -54 -33 0
64 30 -55 0
-22 68 34 0
32 -6 -23 0
9 -33 22 0
-56 -33 -53 0
-68 7 17 0
37 -48 -19 0
-25 -3 67 0
52 -60 50 0
-3 -57 46 0
-44 8 53 0
-39 49 -14 0
49 12 -63 0
55 -44 -27 0
30 -18 39 0
-50 -60 -58 0
27 13 -1 0
-61 -27 -63 0
21 41 36 0
23 12 -65 0
-58 21 -7 0
37 32 36 0
39 -58 12 0
-20 -40 -16 0
54 51 70 0
10 -35 -65 0
