p cnf 70 290
27 48 -67 0
12 -53 70 0
26 -53 20 0
-60 58 -49 0
-34 33 -29 0
-48 12 -51 0
22 -50 65 0
-30 -19 31 0
41 25 -69 0
-1 30 45 0
-38 53 -61 0
13 -55 50 0
-22 -3 -5 0
26 58 -66 0
36 -10 -11 0
-61 10 20 0
-66 45 37 0
63 -35 49 0
-67 31 25 0
42 -17 33 0
-44 13 62 0
2 56 -8 0
-34 54 -57 0
11 -50 -43 0
-1 -13 -17 0
33 -51 -44 0
19 -64 69 0
-32 -46 30 0
62 -56 2 0
-61 17 50 0
1 51 -22 0
5 30 68 0
35 19 -32 0
25 -50 -4 0
28 -66 -29 0
32 17 -34 0
-56 32 18 0
15 -8 5 0
-42 -19 21 0
16 23 42 0
-16 -4 -42 0
-24 14 9 0
-24 -61 31 0
-66 -65 5 0
5 -24 -42 0
-51 -17 -30 0
6 1 26 0
-5 -18 -50 0
4 30 35 0
-58 18 19 0
33 -46 -21 0
-49 3 -21 0
26 -35 -34 0
-13 -15 54 0
29 68 52 0
50 12 -4 0
-16 -28 57 0
19 37 3 0
50 -51 21 0
7 4 -63 0
-24 -35 -19 0
57 66 -6 0
-70 32 45 0
-45 66 31 0
32 41 -68 0
39 9 17 0
-66 -53 68 0
5 -46 68 0
-43 -22 -66 0
-39 -47 -27 0
37 49 58 0
-20 -13 -30 0
-48 42 -9 0
66 -48 -26 0
33 -38 -15 0
-66 19 23 0
-70 -42 -26 0
43 -14 6 0
1 33 6 0
-39 -46 -41 0
-44 -23 -12 0
-45 -12 33 0
-49 3 -23 0
-66 -40 2 0
60 -35 11 0
25 53 38 0
-23 8 -64 0
-43 25 30 0
-41 -1 2 0
57 -19 -21 0
-42 -60 -22 0
-15 50 33 0
-7 60 -38 0
46 -14 -36 0
-23 17 70 0
29 60 38 0
-35 -23 70 0
-9 42 -62 0
-66 7 47 0
-21 -50 -64 0
29 57 -50 0
52 -57 59 0
46 59 48 0
47 51 56 0
-28 -37 -46 0
2 -67 -4 0
47 41 -40 0
42 -22 -19 0
-67 -17 -30 0
6 -11 61 0
-56 6 -20 0
48 -52 -3 0
57 -8 -51 0
-31 15 42 0
65 -37 54 0
59 -35 31 0
62 3 -12 0
52 51 61 0
32 44 -63 0
7 -40 -14 0
-24 -22 39 0
-34 -51 -19 0
35 -40 20 0
-44 -35 -39 0
41 -44 -49 0
-53 -34 60 0
1 -34 -29 0
44 49 64 0
27 53 20 0
8 -26 -3 0
-31 48 27 0
43 36 -8 0
63 45 -68 0
-69 -12 -11 0
-10 45 8 0
-4 -46 -67 0
-15 67 -57 0
-62 50 38 0
-50 -60 -43 0
38 -51 12 0
-43 -45 53 0
-33 -34 48 0
40 35 -10 0
12 -51 -7 0
-50 31 -28 0
-11 7 -14 0
-22 58 46 0
19 70 45 0
13 49 66 0
60 38 23 0
48 10 -34 0
10 -16 37 0
29 -38 9 0
19 -66 37 0
15 47 49 0
-18 64 -36 0
-29 -59 -3 0
-16 3 -2 0
68 -29 -42 0
38 43 54 0
17 16 63 0
-1 54 -51 0
-12 6 -61 0
-58 -69 60 0
-33 35 26 0
52 25 -5 0
54 49 33 0
-48 21 22 0
-69 38 -9 0
18 21 -14 0
58 25 46 0
-27 10 47 0
63 -54 -38 0
59 7 39 0
54 46 27 0
-4 67 -7 0
-22 6 2 0
15 10 -24 0
3 58 -4 0
-28 -64 -2 0
-12 -14 -44 0
43 -30 33 0
37 -3 32 0
-36 47 -24 0
-33 -32 -20 0
63 -37 -1 0
5 70 31 0
-1 -35 53 0
-63 26 3 0
54 -23 -28 0
-21 13 48 0
52 56 -43 0
-42 24 8 0
1 -34 -21 0
13 -67 69 0
-18 -11 -17 0
16 8 -32 0
19 34 29 0
45 -62 4 0
33 49 -24 0
33 17 65 0
18 -20 -57 0
23 -47 -56 0
15 51 -23 0
34 60 51 0
-54 -48 -34 0
52 69 -28 0
-21 -10 -20 0
-20 -45 -56 0
44 -2 5 0
56 -35 -43 0
36 -18 10 0
-6 26 58 0
70 1 -57 0
3 6 -35 0
-58 -14 -70 0
-57 59 53 0
-50 68 65 0
-56 16 -25 0
9 7 -32 0
46 4 -59 0
54 59 5 0
-42 20 -54 0
-22 64 -43 0
70 8 41 0
-32 60 49 0
-30 11 -64 0
5 29 14 0
2 -33 -35 0
-50 54 -10 0
-12 45 -14 0
-47 -65 -43 0
50 -22 37 0
18 15 39 0
29 -31 -37 0
-50 -25 -62 0
-50 -45 -7 0
-24 -45 -31 0
-31 59 -45 0
44 -26 11 0
35 69 -47 0
-66 -13 -70 0
-40 -30 68 0
45 -51 19 0
-6 -36 -12 0
-52 57 -54 0
-19 37 -61 0
-29 46 -1 0
31 -12 63 0
-5 50 -8 0
45 -3 34 0
-64 31 -67 0
40 29 58 0
16 -39 8 0
-41 -37 56 0
-43 38 7 0
-63 -5 -65 0
-2 -33 -25 0
28 -56 62 0
69 17 42 0
-54 62 -4 0
-48 -22 57 0
-68 -24 22 0
18 -30 49 0
66 5 -38 0
43 28 -16 0
-63 45 -69 0
24 -1 -16 0
68 41 -9 0
50 19 -48 0
-25 -54 4 0
51 -16 -21 0
17 8 3 0
15 37 21 0
-20 -37 34 0
61 40 -25 0
-38 -56 58 0
-22 66 -24 0
43 9 44 0
46 63 -61 0
47 46 -10 0
-5 -2 60 0
53 63 -34 0
52 70 -28 0
27 -51 12 0
-9 25 43 0
4 -10 -29 0
66 11 61 0
-30 -57 47 0
22 -28 2 0
