p cnf 70 305
-26 65 20 0
26 -65 11 0
14 37 44 0
-38 14 -57 0
-25 -64 38 0
36 30 -9 0
63 -65 -28 0
51 25 -61 0
29 -42 1 0
-65 52 33 0
39 -55 8 0
40 -37 15 0
37 -18 -65 0
22 2 9 0
-38 -9 -44 0
-2 41 -50 0
22 -56 16 0
33 -41 65 0
-36 34 4 0
-43 64 66 0
-28 50 10 0
32 31 63 0
-21 7 66 0
44 70 -67 0
44 -62 -68 0
-28 -34 17 0
30 35 8 0
-20 -64 69 0
54 -4 -56 0
-65 -58 9 0
-46 55 -37 0
-52 -9 -70 0
57 4 33 0
-61 -20 37 0
52 55 23 0
17 28 35 0
36 -4 -7 0
-8 3 -60 0
45 -38 -36 0
-65 -39 41 0
42 51 -12 0
9 -32 17 0
-48 -8 -57 0
40 -32 48 0
-22 -49 18 0
-10 -3 -56 0
-24 -59 -2 0
25 -51 -55 0
43 -70 30 0
-9 14 41 0
-51 -50 36 0
21 59 22 0
51 -57 -47 0
17 -67 -8 0
64 26 -19 0
-45 12 44 0
52 -40 -50 0
-52 17 70 0
26 33 70 0
-27 62 -10 0
21 56 -9 0
-38 -4 -17 0
-55 -62 45 0
-6 31 21 0
-9 21 -43 0
56 20 66 0
70 53 7 0
30 67 -41 0
-24 19 32 0
-64 29 -40 0
30 -42 36 0
43 -2 14 0
5 63 24 0
-69 -59 -17 0
70 -62 18 0
66 69 -39 0
-44 65 20 0
-54 -63 -34 0
-45 -61 -44 0
40 60 -62 0
69 6 -10 0
-63 6 62 0
44 37 20 0
-33 54 -44 0
65 -10 15 0
55 -1 -17 0
-23 37 -36 0
-40 52 -37 0
36 -51 -59 0
-9 12 50 0
46 38 -8 0
57 -48 29 0
-42 -4 -31 0
29 63 53 0
48 -4 57 0
48 -7 28 0
-1 -56 53 0
32 15 -38 0
37 19 -53 0
-24 40 -50 0
50 3 26 0
-67 -59 41 0
-38 68 -41 0
-7 37 56 0
30 12 -67 0
-15 62 -50 0
-2 10 52 0
-59 -65 64 0
-12 14 -31 0
28 -47 69 0
-70 -50 -64 0
45 40 -17 0
-34 42 47 0
29 25 16 0
-27 -7 -32 0
-42 -1 46 0
-42 67 50 0
67 -64 47 0
-11 -22 62 0
-40 15 17 0
-44 58 28 0
54 67 60 0
6 40 60 0
-48 11 29 0
14 -24 -62 0
7 67 -31 0
49 -41 62 0
-69 23 -55 0
-34 -47 27 0
31 -18 -40 0
35 8 -53 0
38 -35 -28 0
35 59 -13 0
22 26 -28 0
40 42 58 0
29 13 -43 0
55 29 -46 0
-24 39 -62 0
4 -21 16 0
-20 -28 -65 0
16 -65 -63 0
46 55 49 0
30 -20 -14 0
-34 -66 58 0
-24 -52 49 0
39 -23 7 0
-46 69 58 0
6 50 10 0
-55 9 26 0
-52 57 -1 0
-56 41 -63 0
-61 20 36 0
-20 -11 28 0
19 45 10 0
-24 63 18 0
33 10 -27 0
-6 10 23 0
11 -55 -1 0
42 14 -17 0
70 -60 -26 0
-67 63 64 0
17 -38 42 0
-20 -60 38 0
27 -1 -28 0
-6 -1 70 0
5 -69 -9 0
23 -70 -14 0
-34 -54 29 0
70 -25 -68 0
-44 -23 -11 0
-58 36 52 0
-32 24 62 0
50 -23 29 0
24 49 57 0
-18 -4 13 0
-27 -52 -8 0
4 -11 15 0
55 66 39 0
26 -63 28 0
34 24 -9 0
-43 31 -57 0
45 16 9 0
63 -42 59 0
-58 34 39 0
25 20 8 0
34 -11 9 0
-11 47 20 0
-41 -2 -67 0
-39 -28 -18 0
-22 -16 12 0
45 -6 57 0
62 55 -31 0
-20 25 34 0
28 -7 45 0
-21 -10 11 0
-8 -67 61 0
-38 25 51 0
49 -3 -54 0
-54 -29 56 0
22 49 8 0
-18 -29 -48 0
-64 -51 -26 0
-22 -54 11 0
69 -10 -14 0
-46 -67 40 0
-57 -42 65 0
-9 -45 -27 0
-49 -4 -21 0
19 58 -29 0
9 -25 -60 0
3 61 27 0
46 -68 -11 0
51 55 21 0
45 -43 -60 0
-49 70 22 0
60 -15 28 0
54 -46 -14 0
-33 -20 15 0
40 60 25 0
11 1 23 0
-15 -11 -25 0
64 1 -67 0
6 -69 -38 0
14 41 27 0
35 -52 27 0
-61 -69 18 0
53 2 11 0
57 -32 42 0
-17 21 -39 0
-24 -32 58 0
-28 66 -12 0
-51 -27 -33 0
31 -17 69 0
10 -34 -7 0
-12 -7 -51 0
33 7 12 0
-63 38 45 0
-40 38 30 0
-26 -57 36 0
2 -26 6 0
-16 -65 -58 0
-24 -50 -59 0
65 -13 38 0
-2 34 -41 0
17 4 15 0
47 29 -5 0
66 62 39 0
-3 -13 -34 0
-9 31 -69 0
-26 50 -40 0
-13 19 59 0
65 70 61 0
7 6 18 0
24 10 31 0
-14 -24 -52 0
-31 -4 -34 0
15 -6 70 0
-5 -29 6 0
-51 -61 -47 0
3 29 33 0
-25 -18 16 0
-36 -1 14 0
-20 -38 23 0
-10 -61 -42 0
22 17 37 0
-70 43 1 0
-25 49 45 0
65 51 36 0
5 -53 -62 0
42 18 -52 0
-60 68 -47 0
68 -24 -54 0
15 -12 -52 0
70 -31 11 0
-33 69 1 0
-3 -44 -61 0
-4 -50 18 0
20 -27 1 0
39 -53 17 0
-15 66 -21 0
2 -59 56 0
2 -49 -12 0
-8 -3 22 0
-47 -3 55 0
64 9 -44 0
45 -56 -34 0
-15 -58 42 0
11 -29 -24 0
-51 67 -7 0
9 -12 28 0
-12 5 44 0
-59 -61 -39 0
-49 -29 4 0
19 8 -68 0
9 49 -4 0
40 56 -65 0
8 29 46 0
-8 -2 36 0
8 -69 51 0
30 -61 -26 0
-36 41 -2 0
13 68 -6 0
46 -15 -33 0
27 -41 57 0
29 40 53 0
