p cnf 70 275
-6 -35 66 0
58 -53 -69 0
-34 -49 -27 0
-28 49 33 0
70 49 -62 0
-20 56 -24 0
11 38 -62 0
-2 15 22 0
25 9 53 0
23 -22 -25 0
29 23 -67 0
-8 -62 61 0
33 -65 -42 0
-1 6 4 0
2 -53 -47 0
-35 -44 -53 0
-47 37 -16 0
6 -42 40 0
-4 -67 35 0
-64 10 -37 0
-44 -8 69 0
69 33 -26 0
-38 -14 53 0
-7 61 -55 0
23 30 -41 0
-11 9 -57 0
-70 27 3 0
5 33 59 0
25 -18 43 0
-9 -8 -47 0
-62 13 36 0
39 25 7 0
-27 20 -28 0
66 31 -41 0
-58 18 -41 0
-47 40 55 0
48 3 32 0
10 4 3 0
8 -37 57 0
61 -70 23 0
-12 -29 31 0
-22 -45 -36 0
50 -21 -70 0
17 -23 -43 0
60 29 -11 0
-19 -61 -13 0
57 37 -8 0
46 -11 19 0
15 54 -58 0
-22 8 -58 0
-44 46 -29 0
-30 18 15 0
-62 64 22 0
-6 52 -43 0
-68 13 55 0
-35 10 -27 0
19 70 -18 0
14 9 -5 0
-10 -31 -40 0
17 -22 40 0
-55 -51 65 0
13 23 12 0
-60 -54 -19 0
55 -40 -10 0
12 19 -9 0
-37 -61 -64 0
-7 38 6 0
3 55 -40 0
-67 -25 -63 0
33 23 -26 0
-17 58 68 0
44 -14 -30 0
-5 67 -17 0
27 9 12 0
-64 -54 36 0
55 -36 -37 0
24 63 29 0
68 -43 -15 0
63 61 -47 0
-65 -45 25 0
30 39 -62 0
-19 58 -43 0
10 28 24 0
-9 -54 33 0
-16 -26 -53 0
38 65 -36 0
37 -53 67 0
-54 40 -53 0
-31 24 10 0
69 18 -65 0
46 -60 -7 0
-35 -70 1 0
17 30 35 0
33 -68 45 0
-24 -26 68 0
-68 -30 -66 0
-17 46 15 0
-68 15 52 0
68 67 35 0
-1 -44 61 0
-66 -15 36 0
30 -67 51 0
67 28 64 0
31 -56 1 0
-29 19 52 0
-20 47 -36 0
-4 -58 56 0
-37 25 -5 0
9 -61 53 0
64 70 -24 0
-60 -28 -12 0
-4 30 53 0
-10 50 30 0
43 70 -19 0
-28 -60 -55 0
70 12 19 0
14 12 41 0
-70 -38 -1 0
-29 41 -37 0
-8 60 -45 0
-56 4 25 0
-24 44 10 0
55 -63 4 0
64 17 -33 0
27 -41 -5 0
-64 -14 -33 0
-44 5 -55 0
57 -31 -60 0
-30 2 1 0
47 54 -4 0
-50 -45 -28 0
47 22 -9 0
32 -11 -13 0
32 12 -38 0
9 -21 -31 0
-62 -70 3 0
16 66 24 0
57 -53 -70 0
-13 55 -63 0
55 -51 11 0
10 29 30 0
-55 48 -28 0
-18 -56 19 0
-58 -47 46 0
52 -16 -64 0
12 -25 -51 0
18 58 -61 0
-2 -30 -50 0
19 -17 -54 0
-22 43 31 0
61 37 -48 0
30 -14 49 0
-21 -68 -40 0
29 68 6 0
16 53 -66 0
-28 -68 -17 0
-52 23 -34 0
-65 -47 -57 0
49 62 -37 0
-60 69 38 0
21 40 34 0
-42 53 14 0
15 -10 -5 0
16 4 42 0
7 -68 -44 0
-55 37 26 0
-6 -4 1 0
-60 -15 -50 0
64 -10 -5 0
-69 65 68 0
-4 38 -25 0
38 59 48 0
4 -2 10 0
-58 -16 50 0
50 2 -3 0
-6 56 17 0
-65 57 50 0
-11 68 -30 0
-7 -55 26 0
-11 10 -58 0
1 34 -8 0
17 41 30 0
-35 -29 45 0
-37 12 25 0
64 5 69 0
-66 31 -68 0
-52 12 63 0
-5 -69 24 0
29 -8 -42 0
54 18 -22 0
20 34 -22 0
55 25 -4 0
49 -37 67 0
-40 -9 -69 0
-26 -21 17 0
1 -27 68 0
38 -8 45 0
-66 29 -14 0
-60 58 -49 0
28 -3 -35 0
-34 -39 29 0
26 -61 -43 0
-32 15 -23 0
-32 3 -22 0
16 65 8 0
-44 49 37 0
-15 -50 -68 0
-3 42 -28 0
45 -1 -5 0
56 11 -2 0
-36 52 -12 0
5 -4 54 0
11 -23 -25 0
28 57 -30 0
-33 51 42 0
-21 55 39 0
-32 46 -61 0
55 50 -14 0
45 60 -11 0
-60 -16 -59 0
-1 -10 -44 0
65 4 36 0
27 24 -18 0
50 64 25 0
58 34 15 0
21 3 28 0
-27 -61 -50 0
27 51 -4 0
-60 -17 -4 0
-29 57 -61 0
-33 26 10 0
50 4 21 0
12 7 42 0
60 23 68 0
-52 37 23 0
28 63 -58 0
54 -68 -27 0
40 -45 57 0
54 52 -18 0
38 48 -64 0
-19 -1 63 0
-2 58 20 0
-17 -67 38 0
69 5 -14 0
67 40 16 0
66 42 -63 0
-63 67 7 0
58 -69 -43 0
59 -54 34 0
18 41 -38 0
-70 -45 4 0
-22 -8 35 0
-15 39 -57 0
-4 10 -26 0
44 43 -56 0
-29 33 -12 0
-44 -11 -34 0
66 57 -44 0
34 -11 55 0
-17 30 42 0
-19 32 -57 0
-29 -7 32 0
-41 -18 45 0
-27 -62 -52 0
36 34 -35 0
55 -66 -17 0
3 47 -24 0
3 -25 -66 0
-10 -13 -54 0
-60 -17 -70 0
-12 -58 -5 0
-41 -58 -36 0
-58 -37 -54 0
-13 36 69 0
-32 53 -35 0
