p cnf 70 305
13 -37 17 0
-24 50 22 0
19 42 -65 0
-31 -28 -21 0
-45 -70 46 0
32 28 -51 0
44 -27 37 0
45 51 -10 0
21 4 -44 0
30 17 7 0
33 -62 -20 0
9 -58 -60 0
13 4 69 0
-15 46 38 0
-27 67 47 0
-30 24 61 0
61 25 58 0
-68 -38 39 0
-40 10 39 0
-59 55 -2 0
9 -67 -60 0
66 -50 6 0
-66 58 -8 0
-30 57 20 0
-60 -7 66 0
36 2 -69 0
-58 46 45 0
-5 47 56 0
-57 7 48 0
22 13 10 0
-1 -33 -44 0
13 -48 34 0
-8 -60 -59 0
-45 -11 2 0
-29 14 53 0
57 39 -15 0
-34 43 -31 0
53 11 4 0
4 61 19 0
53 27 -42 0
-21 5 -32 0
-47 68 -45 0
33 10 -2 0
9 -22 63 0
68 32 -23 0
43 20 6 0
46 -54 31 0
12 -50 21 0
5 18 67 0
46 6 52 0
-52 22 -26 0
36 45 -5 0
67 19 46 0
61 -45 41 0
13 9 -65 0
-20 49 -16 0
-56 27 -20 0
-27 -9 -58 0
16 -40 -68 0
-22 2 -26 0
-7 -60 58 0
-38 60 7 0
-66 6 61 0
30 38 28 0
7 20 -43 0
-43 8 19 0
2 -57 -29 0
3 -33 -42 0
24 38 43 0
-1 6 4 0
2 -64 13 0
-58 34 -44 0
39 24 -63 0
-10 -38 33 0
-46 -10 45 0
7 -61 2 0
52 -29 -61 0
4 12 17 0
-43 28 57 0
30 69 25 0
-2 26 -10 0
-68 38 35 0
2 -53 -17 0
-34 47 67 0
4 -65 17 0
4 40 -12 0
7 41 -12 0
30 -61 -35 0
-41 -43 -29 0
-4 -53 28 0
31 15 18 0
38 -41 -46 0
-62 5 -16 0
54 16 15 0
56 52 -6 0
35 -24 27 0
27 -8 66 0
11 12 -24 0
42 -10 67 0
-12 67 -59 0
9 -4 45 0
64 -65 58 0
-38 27 -42 0
61 -34 -7 0
-3 -8 -50 0
-50 23 -7 0
-52 -53 -16 0
23 -59 -58 0
-48 1 23 0
-44 -38 -68 0
-15 -64 42 0
35 58 63 0
31 -46 59 0
4 -10 -9 0
-51 66 4 0
57 69 48 0
28 -15 -23 0
65 18 23 0
17 37 21 0
22 -66 1 0
64 19 -54 0
-39 -32 -63 0
55 31 -2 0
42 63 62 0
70 -5 -45 0
34 -2 -27 0
8 2 64 0
67 -30 -9 0
-30 54 23 0
-54 -55 48 0
15 16 47 0
20 49 -60 0
-44 60 6 0
59 -29 -35 0
50 -64 -70 0
-18 -69 11 0
15 -64 -69 0
-20 -18 8 0
-67 24 -47 0
64 63 -59 0
-6 39 -68 0
-30 -13 -18 0
-66 32 7 0
37 51 18 0
-30 -61 38 0
-18 49 -2 0
-43 -12 57 0
41 -49 -16 0
32 57 -10 0
-48 -49 64 0
-14 69 27 0
46 -40 33 0
25 16 53 0
-2 22 -24 0
-49 68 -54 0
68 -15 13 0
48 -36 -26 0
28 -42 -45 0
56 25 -62 0
15 -65 57 0
31 -37 -6 0
-48 54 5 0
16 -14 25 0
10 61 36 0
12 54 -65 0
-60 70 10 0
31 -17 61 0
-60 -24 36 0
63 30 7 0
-52 -1 -60 0
-41 -45 52 0
12 9 -29 0
64 31 14 0
-25 52 8 0
64 -34 -58 0
-19 -9 12 0
-1 58 -31 0
32 50 4 0
22 -53 -3 0
-50 12 -2 0
-7 56 2 0
-28 62 56 0
2 41 -56 0
-39 -65 36 0
-36 64 -69 0
-69 -59 -42 0
-60 70 9 0
-57 -48 -12 0
58 11 44 0
-51 -11 65 0
43 13 -35 0
-22 -58 47 0
19 67 45 0
9 -27 -3 0
27 -32 -25 0
-62 2 -65 0
-20 -3 -30 0
-41 67 13 0
-17 54 3 0
-29 40 -49 0
-5 -8 38 0
66 -14 -21 0
42 32 -17 0
-47 -46 6 0
60 61 -41 0
11 33 29 0
-52 -18 23 0
-62 42 5 0
36 53 65 0
-20 66 55 0
39 -52 -20 0
-3 45 30 0
-48 -12 -9 0
-69 -27 -66 0
5 53 46 0
62 -6 36 0
-49 -46 -47 0
33 -30 -5 0
6 24 55 0
-26 7 -16 0
-7 -24 39 0
1 47 67 0
4 30 46 0
39 -37 45 0
-32 56 -34 0
-54 -62 -4 0
36 -20 -57 0
-11 -65 9 0
7 69 5 0
23 7 61 0
-65 2 -19 0
6 11 -34 0
-21 -37 6 0
-22 -19 -1 0
53 70 8 0
11 51 -8 0
61 -41 -64 0
-16 -63 10 0
31 22 -38 0
15 -20 2 0
10 25 64 0
38 -8 61 0
29 -1 -66 0
24 29 9 0
-15 18 23 0
-44 23 10 0
-24 44 -56 0
-26 27 -21 0
-30 -52 -66 0
59 -70 -61 0
-53 -14 -62 0
-33 -3 -22 0
70 -43 -25 0
-51 -18 -70 0
18 13 14 0
-41 43 -51 0
18 -41 -54 0
51 21 -8 0
-62 -57 45 0
45 22 37 0
-15 -30 -10 0
51 38 15 0
43 -28 52 0
38 55 70 0
25 -52 39 0
-20 7 -43 0
55 -68 22 0
-55 -40 -41 0
-53 43 46 0
16 -47 33 0
10 -42 -8 0
-33 3 64 0
58 -31 36 0
-43 8 -58 0
-5 53 -1 0
70 16 -48 0
-15 55 -53 0
-22 69 12 0
57 23 64 0
31 69 35 0
-44 -15 70 0
-19 14 56 0
30 35 -55 0
-44 7 67 0
-5 -70 -38 0
1 -48 38 0
-28 -30 -29 0
13 19 24 0
69 -17 70 0
14 -53 -33 0
-52 33 -64 0
61 30 -49 0
-70 3 -47 0
47 -32 66 0
-15 -3 -24 0
-52 -34 48 0
-68 -63 43 0
-10 -53 11 0
-42 -66 38 0
-69 11 5 0
-6 -12 -19 0
9 -15 -14 0
49 -68 -22 0
33 -26 47 0
61 16 67 0
