p cnf 70 285
-36 64 61 0
34 -21 35 0
-39 70 32 0
41 -45 19 0
-7 34 -36 0
-67 17 20 0
-43 -68 18 0
-34 -22 29 0
-8 68 -12 0
-7 42 -66 0
12 -6 25 0
-4 58 64 0
42 48 18 0
22 3 7 0
-48 42 -23 0
-52 19 -57 0
30 -22 65 0
-59 -60 -33 0
70 -26 -21 0
35 -43 57 0
12 -51 47 0
-68 32 14 0
-6 13 -29 0
-54 -44 -67 0
-42 50 -65 0
27 38 -36 0
-44 32 19 0
-40 -12 -44 0
31 27 17 0
31 -46 12 0
9 6 55 0
-35 -16 61 0
-50 2 37 0
-66 -22 -37 0
-52 -7 66 0
28 67 48 0
-45 52 49 0
60 13 22 0
48 -53 -10 0
-61 39 48 0
12 -50 44 0
-56 21 -65 0
64 -24 7 0
-62 64 56 0
59 -44 -25 0
3 2 -12 0
-4 -18 43 0
18 -44 -1 0
21 54 67 0
31 14 59 0
-46 -57 -18 0
41 -18 -67 0
-51 -35 -21 0
57 51 -58 0
45 34 -52 0
53 -54 -1 0
-22 1 -30 0
-34 -54 41 0
-15 25 36 0
4 66 -36 0
-30 11 58 0
-49 43 15 0
-37 -51 -61 0
-67 42 40 0
-20 -22 6 0
32 -39 22 0
-49 -40 52 0
-48 -70 50 0
2 -66 32 0
14 19 45 0
-42 29 39 0
-68 -66 -36 0
-13 28 -26 0
47 -42 -7 0
1 -66 32 0
44 -49 -47 0
-46 -8 -34 0
3 65 14 0
-28 56 20 0
33 17 37 0
42 11 -48 0
26 49 -35 0
41 31 -66 0
-15 8 -43 0
-5 -15 -60 0
-35 8 -70 0
-20 -29 11 0
44 70 30 0
-4 -50 -30 0
45 -32 -18 0
-6 -41 11 0
-41 -10 -4 0
-20 -42 -48 0
62 -3 -65 0
40 -29 10 0
59 31 -53 0
-67 61 41 0
1 -25 22 0
-51 21 -64 0
-34 18 -16 0
-27 -56 -42 0
-52 49 -30 0
62 66 11 0
15 18 43 0
67 48 60 0
57 35 44 0
-35 44 -36 0
68 -14 -62 0
68 -51 38 0
-54 55 -16 0
5 65 -1 0
-35 20 -11 0
38 -66 32 0
63 13 15 0
69 11 19 0
48 58 -4 0
-20 29 -57 0
25 -69 -29 0
65 64 24 0
45 60 -16 0
-4 2 26 0
-38 45 44 0
8 49 -58 0
-65 -17 -56 0
-14 47 1 0
9 -17 -3 0
-63 21 -20 0
30 33 45 0
65 -53 44 0
51 62 -52 0
-52 -3 -55 0
69 59 -29 0
34 22 -67 0
-70 -12 63 0
50 -53 29 0
-55 -65 -54 0
-35 -65 -56 0
-62 -2 55 0
-65 60 5 0
-48 -39 15 0
1 58 4 0
36 -12 65 0
55 35 8 0
-56 -30 -40 0
-49 56 -47 0
28 -45 -66 0
42 -2 -59 0
-46 -22 42 0
46 32 -1 0
-44 -45 -53 0
24 70 -49 0
-42 59 5 0
-60 -27 40 0
-8 6 -61 0
-48 -19 -60 0
-11 34 61 0
9 34 -27 0
22 -50 -53 0
-15 -40 12 0
16 -42 -41 0
-53 55 1 0
48 28 17 0
9 29 57 0
46 -41 3 0
65 52 5 0
-44 -13 -41 0
36 29 -45 0
-46 56 5 0
5 -62 53 0
5 57 70 0
-56 -15 2 0
-21 46 -29 0
68 35 -44 0
70 17 -11 0
35 -10 39 0
-6 -38 60 0
27 50 2 0
4 41 5 0
-40 -22 -12 0
22 24 14 0
31 -16 -18 0
-24 -37 52 0
-53 21 16 0
26 42 -29 0
-68 1 51 0
7 -61 52 0
11 -38 23 0
-25 -32 -35 0
37 23 -70 0
3 55 -60 0
-63 -44 -19 0
62 -22 27 0
69 -68 -35 0
34 66 -68 0
37 27 -24 0
29 -55 -46 0
-62 7 69 0
-5 -63 -4 0
-65 -8 -27 0
-36 48 37 0
-30 -23 -26 0
57 35 -19 0
63 45 70 0
43 -17 -45 0
-67 -58 -18 0
-39 -56 -27 0
3 50 69 0
-10 29 -49 0
-50 -37 3 0
52 -26 36 0
64 68 -44 0
31 52 -66 0
54 -52 -51 0
-58 -66 -7 0
-63 26 59 0
9 69 -49 0
-38 46 43 0
-36 29 -59 0
-40 17 -66 0
5 57 -4 0
51 32 36 0
42 68 -22 0
60 25 -56 0
70 50 60 0
-25 17 66 0
-20 6 10 0
21 44 12 0
-33 35 66 0
-66 54 56 0
56 12 57 0
-47 -7 42 0
-22 11 66 0
-6 70 -5 0
-61 6 10 0
41 -23 34 0
-1 -27 44 0
-42 -5 -1 0
-27 49 44 0
5 -7 -32 0
-7 11 -10 0
-36 21 27 0
-22 -70 -19 0
52 49 39 0
27 50 58 0
18 1 41 0
-21 -53 -6 0
-43 -49 29 0
51 20 40 0
29 -20 21 0
-45 -47 57 0
-42 70 -32 0
-68 -31 41 0
51 -2 -41 0
-14 -43 30 0
40 6 8 0
65 -53 -18 0
-62 -11 -12 0
-29 9 30 0
42 12 -24 0
13 12 26 0
6 -44 51 0
21 19 55 0
19 -12 43 0
-59 -62 -4 0
-5 -9 63 0
-68 65 69 0
-69 -12 -49 0
-60 -46 -54 0
48 56 2 0
19 34 29 0
35 -21 -42 0
11 -20 -23 0
-38 27 64 0
-63 25 -43 0
12 -34 -57 0
17 20 -56 0
-33 18 -21 0
16 -18 -49 0
47 -58 -31 0
32 17 -16 0
18 56 70 0
61 44 65 0
-17 -44 2 0
11 -45 -53 0
69 -44 -70 0
