p cnf 70 300
-19 14 23 0
-6 66 -24 0
24 -30 -6 0
-13 -60 63 0
68 -67 60 0
59 5 -25 0
-8 -3 -27 0
18 14 67 0
65 12 -22 0
55 -50 -32 0
-23 17 -47 0
-51 -4 -49 0
-44 -25 -48 0
-59 -50 17 0
-67 59 -42 0
-39 -12 -55 0
68 -29 -1 0
-20 61 56 0
41 -19 -47 0
67 -36 42 0
63 -8 -6 0
8 -27 70 0
-41 47 59 0
-54 -52 -50 0
11 61 64 0
-6 -25 15 0
33 9 -69 0
54 3 5 0
67 -26 65 0
-40 -44 38 0
-37 -24 63 0
19 -24 3 0
46 -44 37 0
54 -39 47 0
-50 -19 -64 0
-32 -22 -26 0
70 -64 -8 0
13 -48 58 0
-1 -27 -51 0
55 49 -53 0
-5 33 22 0
-38 53 -20 0
-14 53 18 0
36 -48 7 0
-10 -23 68 0
-7 54 16 0
60 23 -39 0
-7 -43 4 0
-61 38 -53 0
50 -3 56 0
2 -36 -47 0
25 60 47 0
-23 48 2 0
-19 -17 26 0
42 35 23 0
59 46 27 0
-40 2 -13 0
21 39 -4 0
35 -62 13 0
40 54 23 0
-42 9 37 0
-8 13 2 0
8 -62 -55 0
54 10 53 0
-56 -41 -55 0
8 60 -27 0
53 4 -55 0
-49 -64 -52 0
-70 61 -1 0
10 -9 8 0
-18 -24 45 0
9 -33 -49 0
-56 34 -61 0
-8 -69 -45 0
-2 -16 5 0
16 -14 -19 0
-64 -5 -31 0
27 66 -56 0
59 -34 -58 0
68 11 9 0
17 -13 -19 0
-66 60 16 0
30 28 13 0
-30 -26 -40 0
-40 -24 -66 0
-65 -40 -52 0
69 -18 -20 0
39 -29 21 0
-7 -68 -48 0
-57 -38 -39 0
-29 -49 -26 0
46 29 -55 0
-64 10 19 0
1 52 40 0
47 58 -48 0
-19 -35 -38 0
-22 19 66 0
-40 12 -53 0
-45 48 -62 0
55 -30 -9 0
-30 -65 29 0
7 14 57 0
-48 -1 59 0
64 -53 6 0
-67 24 18 0
9 23 62 0
58 -57 4 0
-26 34 -56 0
52 63 -9 0
-58 -33 68 0
55 3 58 0
-11 -27 18 0
-26 -43 8 0
24 -32 -58 0
-33 64 69 0
44 28 -50 0
48 5 -55 0
-45 29 2 0
-67 59 19 0
40 21 -13 0
64 -39 1 0
-21 -54 -64 0
69 48 26 0
58 -5 -59 0
-32 67 65 0
-17 -19 35 0
31 -47 17 0
-47 20 -31 0
-61 13 56 0
25 -58 17 0
-21 -24 -69 0
-32 -2 -14 0
45 -38 6 0
29 -3 4 0
26 -38 45 0
-12 41 -27 0
-5 19 18 0
18 46 40 0
45 36 -20 0
-65 25 44 0
-1 70 -34 0
-40 -53 21 0
51 -19 2 0
26 -62 33 0
41 38 7 0
5 -41 -48 0
-17 -63 -35 0
-27 10 -39 0
-68 65 39 0
17 65 43 0
59 4 -17 0
-43 4 -3 0
-68 -42 -66 0
-57 14 -35 0
21 -64 -65 0
-7 48 -8 0
-31 65 -40 0
65 68 20 0
-38 64 -66 0
7 -47 -61 0
56 20 15 0
-25 3 50 0
39 -48 63 0
10 -32 -14 0
-34 -3 -17 0
-56 46 -1 0
-56 11 -47 0
32 -65 37 0
-48 -61 -5 0
42 25 -55 0
-3 -45 43 0
22 56 -44 0
-20 -25 36 0
-29 -62 -6 0
-33 -65 69 0
-15 42 45 0
-19 20 -33 0
12 -47 -7 0
-1 5 -6 0
6 41 34 0
64 56 59 0
-37 3 -48 0
39 -44 22 0
-11 -8 9 0
-44 -15 27 0
-53 -15 47 0
4 -67 -61 0
21 -26 17 0
-40 4 -14 0
-17 -25 56 0
-10 -58 -19 0
-1 55 -42 0
37 62 -43 0
-31 -30 52 0
32 -21 33 0
32 45 -1 0
69 12 40 0
60 68 -54 0
6 18 2 0
63 51 -37 0
-24 30 33 0
-10 34 12 0
47 4 -50 0
-66 45 -7 0
-31 -47 -14 0
56 6 59 0
-68 42 -65 0
21 42 -13 0
58 -28 10 0
24 -44 -46 0
45 58 16 0
-49 -64 43 0
-65 28 -19 0
55 -56 23 0
56 6 43 0
-61 15 -24 0
46 45 -28 0
22 -12 -9 0
-36 -65 -10 0
-46 52 -11 0
37 43 -54 0
-7 -8 46 0
56 24 -58 0
-16 -67 -17 0
33 -10 -27 0
48 -49 44 0
-12 45 -70 0
-39 64 57 0
48 62 46 0
31 -39 -49 0
33 51 -13 0
66 8 3 0
-11 -67 -42 0
45 5 -47 0
46 -63 -15 0
21 -61 -56 0
-4 15 -11 0
15 -6 -60 0
-58 33 -52 0
-39 13 68 0
-23 40 -11 0
-57 -33 51 0
68 -38 48 0
65 41 -19 0
69 -33 67 0
49 -53 -38 0
-29 2 -54 0
68 -14 -15 0
42 50 62 0
-27 -37 -65 0
23 -24 16 0
-20 9 -39 0
53 -40 25 0
-63 -3 17 0
-66 -42 -43 0
68 -10 -39 0
-32 -24 23 0
-49 -35 69 0
-30 40 58 0
63 16 -50 0
-4 -29 19 0
48 -34 -38 0
-1 3 42 0
-34 -31 66 0
47 62 -56 0
-19 3 -21 0
9 -51 -16 0
-20 3 11 0
-28 -13 37 0
23 3 41 0
-60 59 20 0
56 27 -30 0
-53 43 48 0
27 -24 -8 0
-31 18 56 0
-11 8 44 0
-33 68 3 0
37 -51 -35 0
-39 -36 -35 0
50 -33 48 0
-9 -30 -47 0
29 63 56 0
-32 -23 -41 0
-11 -67 70 0
5 14 70 0
45 -9 7 0
6 16 -25 0
-22 19 56 0
-53 30 10 0
-27 50 -59 0
45 16 -5 0
51 50 11 0
69 9 -55 0
-55 48 59 0
6 -29 36 0
-31 10 60 0
59 41 -32 0
70 -52 -56 0
-11 13 44 0
-55 -54 38 0
