p cnf 70 260
-59 46 -10 0
10 -46 6 0
-7 34 -43 0
-42 7 -43 0
-3 -41 54 0
-32 -6 45 0
36 52 -27 0
-38 -5 -46 0
10 -54 29 0
45 51 17 0
-67 -33 -45 0
-27 43 -2 0
-26 -45 -4 0
-13 61 -29 0
29 26 -14 0
41 -68 -27 0
-70 -31 -1 0
-66 69 -43 0
-15 26 47 0
-64 -31 -53 0
11 56 70 0
58 67 29 0
-8 40 39 0
29 -47 27 0
44 47 36 0
5 58 -4 0
13 -64 -16 0
50 -40 67 0
-23 -6 2 0
1 -38 59 0
-8 28 18 0
-56 -10 -23 0
-11 59 55 0
10 -17 7 0
-57 -25 -66 0
38 -28 43 0
45 -3 7 0
51 2 -20 0
30 -65 31 0
-70 51 -17 0
69 -67 -62 0
11 -69 -27 0
-63 55 -13 0
-62 22 -42 0
-27 -25 -14 0
-55 50 -14 0
19 54 -63 0
65 11 -8 0
70 -53 24 0
42 70 54 0
-49 -6 61 0
-5 29 59 0
-55 42 32 0
-41 -29 8 0
34 27 -48 0
19 -14 48 0
-37 -11 22 0
44 3 1 0
-2 -27 -62 0
19 2 -13 0
38 19 -65 0
-2 42 -20 0
-9 -46 -69 0
6 -68 -49 0
39 -63 -57 0
-56 -57 34 0
-47 -70 39 0
45 -41 54 0
-70 -58 -64 0
6 13 2 0
-58 -55 -68 0
2 -34 20 0
21 -51 36 0
8 66 35 0
21 -43 32 0
56 51 -61 0
38 49 -53 0
-1 7 64 0
-18 -29 64 0
40 8 34 0
-32 -9 56 0
-15 -46 12 0
35 -19 21 0
39 -19 -41 0
-33 -51 55 0
-5 -70 -53 0
62 -61 -35 0
-66 -8 -24 0
-9 -24 -56 0
44 -34 26 0
-33 -3 -63 0
16 -33 39 0
-36 41 38 0
-12 52 69 0
66 10 65 0
-34 51 -49 0
30 66 -7 0
11 -45 -6 0
-62 -42 36 0
5 -70 48 0
-66 19 54 0
-29 54 17 0
-44 7 18 0
63 -1 -39 0
-17 21 -51 0
-5 -15 25 0
-11 -52 68 0
7 3 53 0
-60 52 -12 0
32 -4 24 0
59 64 16 0
-36 56 -26 0
-4 -60 42 0
19 32 -65 0
-22 47 69 0
-53 4 10 0
-3 39 53 0
-15 -9 62 0
40 -51 -61 0
-15 -56 20 0
-15 -20 -63 0
-4 -28 5 0
50 13 -24 0
-9 -16 -45 0
6 21 68 0
-10 25 -11 0
-55 5 9 0
-1 -10 -60 0
-2 56 -4 0
10 55 -16 0
-28 -39 -56 0
-41 14 -9 0
25 -28 -43 0
42 -45 53 0
-10 61 -1 0
-39 -20 -27 0
-22 1 -29 0
-42 43 -58 0
55 -16 -34 0
-43 -68 41 0
62 -58 40 0
50 48 26 0
-6 39 -19 0
-22 -53 -42 0
-27 -26 23 0
36 -70 -11 0
9 28 65 0
-29 -11 -4 0
42 -28 1 0
44 16 -8 0
-15 -26 61 0
-42 -11 -33 0
28 -45 35 0
-32 20 -36 0
-40 9 61 0
34 5 55 0
-4 54 -68 0
34 15 -55 0
-12 -30 -39 0
15 -25 6 0
34 -37 38 0
12 44 -67 0
2 8 -56 0
21 51 18 0
-31 -42 1 0
-13 15 5 0
56 23 24 0
6 -46 39 0
48 -51 -22 0
66 -24 -63 0
-48 49 51 0
38 15 40 0
-3 56 29 0
-2 69 -54 0
32 -9 -49 0
33 25 -42 0
35 3 30 0
-43 40 38 0
-22 -23 -38 0
1 42 -51 0
46 11 45 0
59 -28 -9 0
27 -2 -7 0
9 -39 -22 0
43 -2 -21 0
-19 -2 -51 0
-28 -38 4 0
-38 69 -13 0
-62 -42 -51 0
21 35 -27 0
51 -53 -7 0
48 32 49 0
13 -36 68 0
-5 40 -70 0
64 38 24 0
7 3 60 0
-59 62 -22 0
30 61 62 0
-16 3 2 0
35 -62 63 0
47 -7 21 0
-15 59 56 0
43 65 46 0
-7 -60 -1 0
-12 -38 -52 0
3 -60 -38 0
-49 -53 24 0
3 -22 -54 0
63 -61 -37 0
-2 3 17 0
-54 -11 50 0
-39 -34 58 0
-50 8 -70 0
-35 14 -17 0
37 27 -69 0
-42 -11 -4 0
-42 -40 59 0
36 65 13 0
11 8 9 0
2 -10 -54 0
20 -5 8 0
46 -35 51 0
-44 48 -50 0
-63 -32 -2 0
30 5 -34 0
47 36 -20 0
55 61 -18 0
-50 -25 15 0
-62 30 69 0
53 51 2 0
55 50 -37 0
44 -39 54 0
-14 62 67 0
-40 -56 -25 0
-40 -47 68 0
47 39 -4 0
-16 40 29 0
-5 28 66 0
16 -13 47 0
-34 -46 63 0
-65 -32 16 0
-61 -13 -53 0
35 -12 -1 0
58 -2 -55 0
25 34 26 0
-23 63 54 0
-6 -47 -39 0
-7 68 -32 0
52 -32 1 0
11 -62 47 0
18 -51 37 0
-59 8 57 0
-62 -32 -56 0
16 20 -43 0
-65 1 -7 0
-51 -68 19 0
-41 45 -6 0
-22 -35 -52 0
-49 9 15 0
57 66 -2 0
