p cnf 70 290
-53 -40 -37 0
58 -24 11 0
-7 -15 -39 0
-39 -29 -21 0
-48 12 -42 0
7 -48 35 0
-26 -41 -8 0
-45 51 36 0
-59 -23 -65 0
-9 -6 30 0
39 -47 -3 0
-30 33 -16 0
35 13 37 0
-57 -26 -22 0
53 52 42 0
32 -12 -59 0
46 -15 -37 0
62 56 70 0
-62 -8 3 0
-56 33 46 0
41 8 -16 0
17 1 -56 0
-22 -60 -39 0
28 -47 -68 0
-5 -3 26 0
-20 -59 -1 0
-14 -7 21 0
-33 -24 -37 0
56 35 43 0
-37 -19 -25 0
33 -35 -56 0
-31 -23 4 0
20 -70 21 0
-56 -12 -52 0
28 -48 22 0
17 -32 -31 0
24 -14 -22 0
17 -8 -39 0
56 -44 67 0
-35 -63 -57 0
62 -47 24 0
-24 55 25 0
-4 -54 -15 0
42 -49 -24 0
39 -32 -24 0
-26 -48 41 0
64 12 51 0
-58 -31 33 0
49 43 -1 0
31 66 -6 0
32 65 42 0
-27 -51 1 0
8 -53 -28 0
39 59 -2 0
2 -44 27 0
29 59 17 0
-9 51 -42 0
50 31 -34 0
50 6 52 0
-60 63 -22 0
17 3 -62 0
51 -58 -41 0
53 -44 -48 0
31 -45 -65 0
-70 31 59 0
-42 1 51 0
36 -40 -14 0
44 -45 -22 0
24 49 -32 0
58 -6 -27 0
34 66 29 0
6 -42 54 0
2 -25 -58 0
44 63 51 0
34 7 9 0
-13 44 -50 0
45 -33 60 0
24 6 36 0
4 41 11 0
5 -14 -51 0
36 44 -53 0
19 -45 37 0
25 -59 -60 0
68 -27 -53 0
53 28 -62 0
-44 -19 37 0
-34 -32 20 0
42 11 -45 0
34 -57 32 0
62 -30 56 0
-52 -47 24 0
19 61 28 0
-36 -69 -12 0
-31 19 5 0
40 50 5 0
53 -41 -14 0
27 4 7 0
70 32 19 0
63 16 43 0
51 68 -22 0
-54 20 -3 0
-69 28 50 0
6 -60 -5 0
4 45 60 0
-63 14 21 0
-27 49 -38 0
-38 -46 60 0
29 65 20 0
16 39 -4 0
-15 -1 14 0
-45 17 31 0
51 3 -23 0
-65 -46 55 0
-20 8 39 0
-14 34 -51 0
-53 34 67 0
-13 -25 44 0
21 -17 -70 0
70 -42 -22 0
-57 19 -36 0
-61 22 59 0
31 -26 53 0
-5 66 9 0
-33 25 15 0
57 35 -19 0
53 63 42 0
59 -33 48 0
-3 57 -8 0
21 53 22 0
47 -49 62 0
-16 -2 -26 0
-42 41 36 0
51 -34 30 0
-24 -6 31 0
62 -44 5 0
-39 50 -47 0
26 -6 27 0
29 64 -55 0
69 35 -47 0
30 58 -22 0
-4 51 44 0
-7 19 -59 0
57 -70 -39 0
-27 -3 -33 0
23 -44 -8 0
65 18 51 0
69 -17 31 0
-10 -61 34 0
8 26 54 0
3 -53 -7 0
19 -27 54 0
-69 -30 -13 0
-56 -36 2 0
70 -18 -45 0
16 -66 33 0
11 -20 -24 0
-36 52 -17 0
46 -66 61 0
-26 -31 16 0
-65 44 38 0
-48 34 -23 0
38 -24 -43 0
-7 -2 24 0
39 -12 -62 0
-57 22 9 0
-1 -40 22 0
31 -65 36 0
45 -48 -30 0
60 47 57 0
-25 69 26 0
-45 50 -25 0
29 -45 -61 0
-4 30 21 0
21 -66 -32 0
-47 15 -4 0
47 -38 62 0
-52 -37 55 0
9 -22 52 0
29 -54 -49 0
-29 -69 -31 0
22 -41 8 0
12 57 26 0
-63 5 27 0
69 29 -7 0
22 -42 53 0
-10 -27 -6 0
-25 -38 -64 0
23 17 25 0
22 28 -31 0
62 -69 58 0
1 -64 -45 0
69 62 35 0
-34 -59 69 0
-16 -4 7 0
-22 -58 41 0
38 11 36 0
60 -34 61 0
-45 41 54 0
-52 32 -45 0
53 18 -49 0
-24 -11 -28 0
-42 -26 -25 0
-41 -43 -51 0
-16 -5 42 0
50 -31 -25 0
-53 11 -13 0
-63 -42 -62 0
-33 42 -15 0
-9 -37 -43 0
45 -7 -50 0
-19 -27 38 0
29 -65 -13 0
40 66 -36 0
-43 -42 -70 0
-39 -60 22 0
54 -67 36 0
-63 -56 50 0
-5 7 33 0
-17 60 30 0
-32 -25 35 0
46 -69 -67 0
49 -26 -52 0
51 -49 -62 0
12 -15 -65 0
-30 -2 -44 0
-26 15 -52 0
40 -41 63 0
4 43 -69 0
10 64 2 0
-16 -63 47 0
25 13 44 0
61 68 -30 0
-20 14 -9 0
-61 68 -21 0
21 -2 3 0
2 23 54 0
12 -64 -43 0
3 8 -59 0
38 -60 -61 0
-58 49 50 0
-61 30 10 0
23 -2 55 0
-48 -25 -49 0
11 18 60 0
-47 -38 36 0
-43 63 -54 0
31 -5 -33 0
-37 43 -55 0
45 53 -37 0
68 -25 70 0
63 17 23 0
-2 -52 40 0
68 37 -6 0
-22 15 -53 0
33 2 22 0
69 -8 51 0
42 -7 -9 0
-38 55 -62 0
-4 -16 -13 0
-52 -55 -32 0
-65 19 56 0
35 45 62 0
-16 24 64 0
-29 -62 23 0
52 18 -30 0
17 48 -20 0
28 -23 -35 0
60 16 63 0
54 46 14 0
-46 21 -37 0
-18 -68 -26 0
-57 -49 12 0
-20 61 -34 0
-2 65 29 0
-64 -5 21 0
-22 -36 -16 0
19 24 -17 0
-68 33 -57 0
6 61 -69 0
56 2 -36 0
39 -28 -3 0
57 27 -33 0
56 -66 -9 0
-60 -24 54 0
14 -25 67 0
42 49 67 0
-47 60 2 0
10 67 -8 0
47 63 56 0
-45 4 -57 0
