p cnf 70 260
-6 -35 -27 0
3 17 -18 0
-69 49 -57 0
52 -33 24 0
8 -45 -66 0
44 1 56 0
-70 -42 -14 0
-7 -64 -17 0
31 -5 10 0
-52 56 29 0
-63 58 -50 0
40 52 -7 0
24 17 -31 0
-70 46 -26 0
16 -17 -38 0
-8 -9 -1 0
11 -37 -69 0
44 -70 -40 0
35 20 -65 0
-9 18 -25 0
-39 32 -7 0
20 19 -41 0
18 -37 58 0
-25 56 -38 0
4 66 -32 0
46 -19 -41 0
-38 -56 -61 0
-62 -2 -46 0
-19 -21 32 0
38 -63 31 0
8 -19 -2 0
50 17 -53 0
-39 65 -19 0
-40 -21 -54 0
5 -45 13 0
-31 -10 44 0
41 -5 23 0
-10 -28 -57 0
-58 68 9 0
10 -40 56 0
26 -3 65 0
27 57 -52 0
25 70 -57 0
47 37 56 0
-25 19 3 0
43 52 28 0
-43 51 53 0
65 -29 57 0
-17 -15 48 0
21 -10 -4 0
-51 54 -5 0
-31 3 61 0
-70 -53 40 0
3 -27 44 0
26 68 8 0
-14 -50 -8 0
66 60 34 0
-6 -70 -35 0
36 -6 65 0
55 -45 17 0
32 12 35 0
44 -15 39 0
11 40 -60 0
-12 49 -20 0
31 59 -39 0
-2 46 -30 0
39 -29 -28 0
32 -63 27 0
70 -17 10 0
69 -26 -44 0
-61 41 8 0
27 42 29 0
32 14 -56 0
-63 -43 -28 0
-56 -34 47 0
-27 3 14 0
66 5 62 0
-53 49 33 0
-55 50 -60 0
21 -33 25 0
28 -20 -44 0
48 31 -6 0
-22 7 62 0
55 8 -62 0
-63 -36 17 0
-9 -62 -55 0
46 -29 6 0
59 -14 29 0
-19 57 33 0
-17 -5 48 0
-50 62 67 0
-43 -11 -3 0
67 -6 30 0
-1 58 -48 0
-15 50 -57 0
32 46 12 0
-68 15 62 0
13 -10 -58 0
14 28 -47 0
39 -62 -51 0
34 50 -4 0
-56 21 40 0
67 -28 18 0
12 33 -41 0
56 46 -37 0
33 -44 40 0
-21 -50 29 0
12 32 -52 0
-13 -49 9 0
-18 -58 -42 0
67 -64 -22 0
-28 -49 -44 0
9 2 -15 0
-22 -26 -53 0
-65 -44 -17 0
-10 -55 -60 0
-10 -54 -30 0
8 13 50 0
-16 26 57 0
45 30 50 0
-10 -8 67 0
53 -13 -42 0
-4 -56 9 0
-17 -49 -62 0
-69 -35 -20 0
10 -58 -56 0
25 -59 6 0
-34 13 66 0
-8 -35 18 0
6 64 -47 0
-9 52 31 0
44 5 38 0
-67 -55 -26 0
-28 -46 30 0
66 -12 -49 0
25 -53 27 0
44 53 31 0
31 -12 -43 0
-7 -24 2 0
-2 16 48 0
3 -32 37 0
43 -16 -57 0
51 -61 38 0
44 9 -67 0
17 32 -46 0
-63 -9 -67 0
1 -28 -42 0
38 16 -8 0
-16 60 -65 0
-2 -1 19 0
35 22 -59 0
16 34 62 0
50 27 -17 0
-67 -4 37 0
7 -40 -67 0
70 69 46 0
-8 65 -56 0
37 57 -26 0
-20 -2 -51 0
49 10 22 0
-65 -32 -66 0
47 -29 -24 0
-15 3 -50 0
62 -45 -65 0
32 48 55 0
-59 -39 -12 0
37 11 -52 0
-51 65 -66 0
11 -6 -8 0
-5 -65 68 0
-34 51 36 0
-54 47 -8 0
-64 -28 44 0
61 54 -62 0
-5 -32 -15 0
21 -26 -70 0
64 -50 45 0
56 -50 22 0
16 22 66 0
16 26 -39 0
43 11 -7 0
-12 -18 15 0
45 -21 -54 0
-30 47 -28 0
5 57 58 0
-42 41 26 0
-41 8 25 0
-21 -52 -32 0
58 51 -33 0
-49 -5 18 0
12 -59 21 0
-12 10 -4 0
11 -10 31 0
-55 10 43 0
49 4 7 0
-39 43 -30 0
54 -15 14 0
-68 27 47 0
-23 35 -45 0
53 -34 -61 0
-19 61 6 0
-67 42 -59 0
-52 -44 27 0
-8 2 -20 0
59 26 62 0
49 -42 -68 0
-4 7 -29 0
68 -8 -39 0
12 -48 -66 0
-19 -7 55 0
-52 -42 -16 0
45 -12 24 0
-50 40 -54 0
-25 11 -57 0
62 -49 9 0
28 -67 -47 0
-17 -57 67 0
68 -65 -47 0
18 -14 28 0
5 4 -26 0
57 18 -29 0
-35 -39 -44 0
-25 52 28 0
-35 14 -49 0
37 -3 -48 0
18 5 25 0
-60 -28 21 0
45 -66 -68 0
30 -3 34 0
6 -16 36 0
-30 66 -47 0
-25 -39 -55 0
-66 -48 -34 0
48 -66 70 0
14 38 -11 0
18 46 21 0
-28 65 30 0
8 -39 -33 0
12 5 -11 0
-15 -10 13 0
-58 -49 -4 0
-14 57 -41 0
63 24 53 0
-32 -29 -21 0
-65 62 30 0
45 33 -44 0
-51 43 3 0
26 40 22 0
51 -58 65 0
49 29 -62 0
-38 44 -28 0
66 -11 -67 0
3 23 -10 0
-45 7 -63 0
69 18 -57 0
-56 -5 -21 0
-54 -43 60 0
35 25 11 0
59 42 5 0
29 -47 -12 0
