p cnf 70 295
66 17 3 0
-50 -54 6 0
-1 -6 -66 0
-41 50 -60 0
58 1 -57 0
-25 -46 -8 0
-63 -17 -66 0
4 -22 18 0
-44 -3 1 0
4 55 20 0
-65 -46 -49 0
-2 60 -50 0
43 16 17 0
9 35 46 0
70 -58 -61 0
-48 -10 -54 0
41 61 36 0
-13 -31 -33 0
-57 24 42 0
39 -36 7 0
-10 -38 67 0
-16 7 -26 0
-3 30 -35 0
12 -37 68 0
36 33 21 0
-43 -61 53 0
50 57 32 0
21 23 53 0
57 67 -24 0
35 -51 -23 0
-32 -46 -43 0
-15 69 54 0
46 36 58 0
8 -48 37 0
-54 41 -40 0
25 -23 -6 0
-10 17 28 0
64 41 -50 0
-55 -50 -19 0
-23 19 -51 0
1 53 -55 0
-46 48 -49 0
-64 -41 -22 0
-35 -14 -53 0
2 -49 60 0
-40 -37 -18 0
-35 13 46 0
-47 -67 -43 0
22 64 26 0
-10 -47 38 0
-19 -49 -40 0
11 -39 53 0
41 -3 -33 0
35 48 -66 0
-28 -24 -31 0
46 29 -47 0
30 -22 -56 0
-67 -24 47 0
65 58 -52 0
39 58 -33 0
31 39 10 0
53 55 13 0
-29 -46 61 0
-35 -53 -34 0
-59 -41 63 0
62 -19 -21 0
50 -19 66 0
45 -39 -66 0
59 -36 64 0
-26 -17 37 0
20 -60 -19 0
37 40 9 0
68 -27 -12 0
16 64 32 0
46 66 42 0
-51 -26 69 0
-60 -36 61 0
70 -51 2 0
31 -43 63 0
-49 -41 67 0
-66 -13 -39 0
54 -30 21 0
-52 16 27 0
-56 50 -52 0
34 24 36 0
-35 38 22 0
34 -68 28 0
-30 66 24 0
18 16 29 0
-69 67 -8 0
-59 -11 -62 0
70 18 -46 0
-19 14 -45 0
1 -7 47 0
18 6 -70 0
34 38 -17 0
43 -49 36 0
59 -32 -22 0
54 -2 55 0
-57 -23 -12 0
19 -42 -45 0
37 20 -13 0
-21 46 39 0
-62 9 -27 0
54 -68 -70 0
-35 23 59 0
-55 24 -64 0
-11 38 48 0
-65 -64 -1 0
9 -46 58 0
-22 6 41 0
-6 44 50 0
-19 -30 64 0
-55 39 -8 0
6 55 56 0
-62 -23 60 0
39 23 -45 0
-5 67 -21 0
-69 -37 27 0
29 21 1 0
-58 -50 -5 0
51 -26 -28 0
57 19 59 0
7 32 62 0
-60 -11 70 0
52 38 -50 0
-42 30 -68 0
63 23 -67 0
1 19 -46 0
11 51 -23 0
-31 50 -7 0
25 -54 62 0
59 14 19 0
-1 -52 40 0
47 36 50 0
-66 20 -2 0
18 -32 -68 0
41 -69 57 0
-4 55 -67 0
-68 -23 65 0
-3 -20 18 0
12 69 2 0
-21 -59 61 0
41 10 15 0
-13 67 69 0
-29 19 -61 0
-65 43 -1 0
44 6 33 0
21 -26 -39 0
-48 -23 -47 0
-16 37 -20 0
-19 -27 44 0
-51 59 14 0
14 -37 22 0
58 19 -23 0
-41 47 -29 0
37 60 2 0
41 -54 58 0
10 -47 -38 0
-26 64 -53 0
50 -8 -49 0
-43 53 65 0
-4 -43 25 0
11 20 64 0
-49 25 23 0
8 -25 -57 0
43 29 15 0
-36 50 5 0
-54 23 40 0
-44 -67 8 0
34 -55 10 0
-29 34 52 0
-23 51 -49 0
-49 61 -55 0
36 4 39 0
-50 -55 69 0
-46 -58 -20 0
26 -32 21 0
11 -25 34 0
-50 47 63 0
12 -1 -57 0
-51 -15 48 0
-29 -6 -66 0
15 -8 65 0
-32 -41 -64 0
9 58 -20 0
-28 -48 -52 0
-25 62 -27 0
-53 -13 66 0
30 -18 65 0
-26 -22 -12 0
48 41 -50 0
27 -48 -4 0
-14 -31 37 0
-36 16 64 0
-49 -41 46 0
58 50 -40 0
-5 -56 60 0
-13 32 63 0
-31 -24 -30 0
48 -59 -70 0
-39 -27 30 0
15 -64 55 0
-5 51 -17 0
63 29 59 0
-13 69 -12 0
7 -69 -20 0
-47 -56 -58 0
-25 -2 -27 0
-52 -46 -41 0
62 -60 -29 0
-28 -39 -15 0
30 53 -1 0
-26 -7 -44 0
59 21 48 0
42 -11 37 0
51 17 -32 0
-26 1 59 0
60 6 -50 0
-37 -11 63 0
-31 6 52 0
-5 21 -2 0
62 -38 2 0
22 -23 21 0
-34 28 62 0
-18 -39 -6 0
52 42 23 0
56 33 11 0
23 -62 -16 0
-63 -7 -66 0
-48 -47 -49 0
-30 -60 -46 0
50 41 -61 0
-41 1 47 0
-31 4 -65 0
60 46 -58 0
50 -4 -61 0
-9 14 -3 0
-24 10 -54 0
12 -22 -35 0
-11 -56 50 0
7 21 45 0
-2 5 1 0
28 -62 -66 0
-19 -68 66 0
25 -48 -35 0
50 60 -70 0
12 26 -45 0
19 14 16 0
-15 21 43 0
57 -5 7 0
-31 -48 -35 0
6 -19 29 0
43 -47 16 0
-34 61 35 0
-64 -12 59 0
-34 -14 12 0
61 4 13 0
-66 54 -26 0
-56 -11 -49 0
62 7 -66 0
-19 -54 42 0
38 22 -58 0
-48 69 -9 0
41 68 -36 0
53 -50 -34 0
-37 62 17 0
21 -31 -16 0
57 17 -49 0
-48 31 -44 0
60 -42 24 0
65 -45 -40 0
-29 65 23 0
-14 -68 -63 0
50 -66 65 0
48 -57 -33 0
53 -69 -18 0
65 -13 -62 0
-69 -38 -31 0
-37 30 -14 0
-10 -53 -56 0
5 13 -43 0
-8 -35 -1 0
13 -15 -38 0
38 -6 50 0
29 -18 -54 0
49 1 -63 0
41 -9 7 0
13 26 28 0
33 4 -62 0
-32 -53 26 0
24 -50 -18 0
55 -34 57 0
-51 -64 45 0
-18 -61 16 0
