p cnf 70 290
50 52 -6 0
-12 22 -1 0
-29 69 -13 0
-52 45 -2 0
16 19 14 0
65 69 -20 0
-32 -5 57 0
4 -17 -18 0
-12 -58 -23 0
15 -53 -1 0
-64 -18 28 0
69 13 -10 0
2 51 -25 0
-30 41 -43 0
-29 6 -11 0
17 -21 -48 0
32 -13 17 0
-4 19 -41 0
-12 -13 52 0
68 10 -15 0
-31 66 52 0
22 -64 -9 0
7 -11 66 0
28 46 24 0
10 -23 -55 0
-35 59 -31 0
37 33 -42 0
-61 20 31 0
-40 -24 3 0
-60 25 -28 0
58 -53 -43 0
-39 -44 -25 0
59 25 -8 0
16 34 20 0
-25 67 28 0
-48 -5 -11 0
45 56 28 0
62 -30 58 0
43 -13 -70 0
-17 54 -61 0
50 58 9 0
8 1 46 0
8 44 -65 0
-1 -19 4 0
-55 -30 -54 0
-34 -10 1 0
6 -23 9 0
12 -37 -68 0
-25 -19 -26 0
-13 -65 -33 0
10 48 -18 0
17 32 -23 0
25 29 26 0
21 64 54 0
-60 43 -49 0
69 68 31 0
47 -25 -31 0
-54 45 -29 0
-10 -8 -27 0
56 -3 -59 0
-20 -37 -60 0
-12 48 -27 0
54 -7 23 0
61 -55 -16 0
61 31 2 0
3 -30 39 0
-22 56 39 0
-15 40 19 0
-28 35 -25 0
35 8 -56 0
-23 -40 -43 0
-44 -32 65 0
-34 49 -38 0
34 -4 3 0
5 -67 68 0
-27 -46 -57 0
-11 -26 -30 0
6 31 -61 0
-14 -49 15 0
-29 1 -13 0
62 59 18 0
-38 35 23 0
-22 24 -64 0
-59 -19 62 0
-67 53 -28 0
29 9 -51 0
-27 -65 -22 0
-62 -58 -64 0
-3 -70 -20 0
-17 -56 -33 0
18 -23 46 0
24 -37 12 0
-50 -65 -63 0
18 -15 39 0
-18 -41 16 0
-11 -39 -58 0
44 47 -42 0
-11 -15 25 0
4 -53 60 0
23 44 -40 0
58 -2 -32 0
9 -1 -59 0
39 -14 49 0
54 -32 68 0
34 61 -50 0
44 -12 -21 0
22 -12 -11 0
-65 -22 -53 0
49 35 60 0
-35 37 43 0
41 66 -43 0
-44 28 -57 0
45 -69 -4 0
-63 -23 68 0
-7 25 -67 0
36 -31 51 0
-64 -22 -6 0
-70 -8 -23 0
46 8 17 0
-2 -26 -37 0
36 -6 45 0
14 60 -31 0
57 -66 -49 0
6 14 -16 0
-46 -45 -44 0
-55 61 -38 0
-14 -23 -9 0
-11 36 15 0
51 -30 -44 0
-52 -23 -5 0
65 -60 34 0
-24 38 -65 0
28 26 17 0
-56 -29 -55 0
-30 -38 22 0
-11 55 -50 0
45 28 10 0
30 -23 -44 0
13 -28 -8 0
-54 29 -38 0
-11 24 31 0
-23 5 32 0
29 -41 -63 0
38 -22 -63 0
-56 27 -8 0
-56 -2 44 0
-52 -45 -12 0
-37 28 15 0
65 54 40 0
65 10 62 0
48 -66 -26 0
-34 65 -67 0
28 -10 30 0
44 43 42 0
-29 -64 -50 0
8 58 -47 0
69 66 -46 0
-61 2 12 0
-46 -32 -49 0
-14 -68 -69 0
45 34 32 0
-33 -67 5 0
-25 24 5 0
50 30 -10 0
37 17 -58 0
-24 -39 48 0
33 11 38 0
16 28 4 0
54 31 -14 0
27 -69 -46 0
45 -51 6 0
-54 -14 65 0
42 40 50 0
62 36 -45 0
50 -33 16 0
-34 -12 -60 0
-4 -68 35 0
31 25 -46 0
34 24 -39 0
-69 -61 53 0
41 60 -19 0
-31 57 -19 0
-66 31 -64 0
-34 43 3 0
42 -43 -60 0
-51 -66 60 0
15 45 1 0
6 -55 -70 0
11 -7 -65 0
-53 48 8 0
12 17 -46 0
4 -38 -69 0
46 -31 38 0
-13 -57 44 0
-10 -30 -2 0
4 39 44 0
-53 40 12 0
45 -50 3 0
-37 -28 67 0
45 -3 -68 0
4 54 -36 0
-9 1 -55 0
-68 -1 61 0
43 68 46 0
45 26 53 0
37 61 -42 0
43 -28 17 0
-42 31 23 0
-32 55 33 0
33 42 7 0
38 -43 -10 0
-16 -26 -5 0
-13 15 47 0
-43 10 -15 0
-35 -3 -68 0
-38 2 34 0
40 11 21 0
-13 -47 -23 0
29 -20 -33 0
62 -70 -32 0
1 -43 -12 0
-55 17 -15 0
47 48 57 0
-64 56 36 0
41 -9 25 0
14 18 -6 0
7 50 5 0
70 65 -20 0
10 3 -53 0
-38 46 -69 0
53 -14 -67 0
64 60 48 0
-65 -51 50 0
-1 38 67 0
7 19 53 0
39 -14 53 0
-2 61 50 0
-69 -68 30 0
42 -30 28 0
-18 -1 -54 0
-50 -31 1 0
-63 -11 -61 0
50 -60 -22 0
-63 -43 -44 0
41 -67 -9 0
-69 -8 -3 0
-55 -67 -64 0
8 18 40 0
-45 39 -11 0
14 -38 37 0
6 -41 -61 0
-54 -9 13 0
25 69 -12 0
53 70 17 0
70 51 -47 0
-19 42 53 0
-63 -33 54 0
-22 -34 -11 0
17 -53 21 0
8 -3 -28 0
14 -38 -19 0
29 -68 -67 0
-8 47 -67 0
57 53 -21 0
-1 -7 53 0
-64 13 63 0
-35 40 63 0
5 47 44 0
33 -67 -42 0
11 -63 -65 0
59 11 12 0
-27 55 19 0
-53 -22 -56 0
47 -37 -70 0
-61 -2 -43 0
-25 -33 -53 0
-63 -47 66 0
-22 -67 65 0
-3 -47 51 0
-8 -9 -50 0
22 32 -61 0
-59 44 19 0
41 46 6 0
-55 64 -42 0
12 33 11 0
-66 -49 -52 0
-44 67 -54 0
-6 29 -50 0
65 68 -59 0
27 49 2 0
