p cnf 70 270
1 48 -47 0
-1 -28 -43 0
33 -44 3 0
43 58 -2 0
43 -26 -67 0
-23 -4 2 0
-65 -24 44 0
52 -36 31 0
-4 41 61 0
14 -7 -67 0
23 -30 -34 0
32 -65 -12 0
19 62 32 0
-55 17 -31 0
65 21 51 0
52 -33 50 0
46 19 1 0
-4 17 30 0
32 -5 33 0
-60 -12 66 0
53 -24 -29 0
-36 54 -7 0
47 33 50 0
68 9 -32 0
-32 8 20 0
46 -3 45 0
48 35 29 0
-25 -54 -41 0
-43 56 -10 0
6 27 64 0
-6 53 -10 0
-54 70 -42 0
-32 -28 -2 0
63 -4 -65 0
-45 -33 -63 0
1 51 45 0
28 18 -27 0
-42 -19 -23 0
9 -63 -21 0
-16 -14 41 0
-40 -19 -69 0
-34 22 66 0
-67 41 -34 0
-23 -26 51 0
-35 3 67 0
70 -39 -50 0
-40 -35 -39 0
11 -62 -7 0
44 8 -70 0
-70 -40 60 0
-24 12 -68 0
-34 -68 21 0
54 44 61 0
-39 11 -48 0
-20 -30 -48 0
8 -4 37 0
34 -57 -51 0
42 -66 1 0
28 27 50 0
-27 -49 -45 0
-7 -59 48 0
-50 68 16 0
24 -35 4 0
-28 22 -1 0
-14 19 64 0
-63 -5 -33 0
28 57 37 0
12 14 -10 0
48 46 -57 0
56 20 -8 0
-62 20 39 0
-14 -40 20 0
-33 64 -40 0
70 37 -34 0
-33 -52 20 0
21 -53 -30 0
15 7 -3 0
-55 70 38 0
41 -34 23 0
51 16 -46 0
-35 -57 -60 0
31 18 -1 0
18 69 -57 0
-57 30 -63 0
-63 -29 65 0
-3 -10 22 0
5 37 35 0
-43 64 -59 0
26 -67 -53 0
21 -41 12 0
35 -57 8 0
24 48 70 0
-66 -16 -49 0
-41 -4 48 0
70 -51 -36 0
21 -2 -33 0
37 -16 24 0
-9 54 -63 0
15 -50 59 0
27 -19 60 0
42 50 -62 0
-26 54 -16 0
-18 -17 4 0
-44 -62 70 0
-65 47 53 0
25 42 4 0
-38 29 -51 0
11 -45 1 0
39 68 60 0
45 -68 13 0
23 -7 -53 0
1 67 5 0
26 28 60 0
17 42 50 0
18 -9 62 0
51 -36 62 0
11 -55 -60 0
18 -12 4 0
20 -40 61 0
-18 14 32 0
19 60 -48 0
19 9 -7 0
3 -51 6 0
-3 39 -44 0
33 -41 32 0
19 56 -11 0
-6 -13 -58 0
33 12 31 0
70 46 12 0
18 12 -3 0
-6 -38 -9 0
-49 -54 -26 0
12 -55 14 0
59 3 22 0
-62 -7 -36 0
15 21 58 0
-2 18 -47 0
68 -13 -32 0
-22 30 -59 0
70 -44 -33 0
-58 69 62 0
-29 24 51 0
42 -41 60 0
24 20 35 0
19 60 -58 0
-26 -13 15 0
68 24 63 0
44 29 -1 0
-50 5 66 0
64 28 33 0
-7 -57 -30 0
17 67 -37 0
23 -30 -64 0
48 -1 40 0
-46 -65 -69 0
27 -58 13 0
54 -48 -26 0
45 15 27 0
54 -62 20 0
11 -59 26 0
-31 47 59 0
41 -8 44 0
22 -42 26 0
-28 -19 3 0
56 -38 -26 0
-5 44 -63 0
7 -57 -51 0
11 21 17 0
70 -21 23 0
2 4 46 0
-51 55 -23 0
40 24 18 0
57 65 17 0
-43 -17 -52 0
-10 27 -30 0
63 37 -35 0
-63 -26 -18 0
57 -8 47 0
26 -44 -47 0
30 -24 -60 0
-62 -23 10 0
46 -11 39 0
18 63 19 0
29 17 56 0
-62 -37 -69 0
-59 63 14 0
22 29 10 0
-34 53 -1 0
16 27 70 0
-8 68 -18 0
-35 -66 40 0
-67 -70 43 0
12 -21 28 0
38 24 42 0
-6 31 -51 0
65 40 -49 0
23 7 -16 0
31 -19 -26 0
50 -35 -67 0
-42 -39 15 0
-38 -4 14 0
-1 -51 63 0
17 -13 42 0
51 61 -4 0
22 -16 -26 0
-35 1 -70 0
-52 -68 24 0
-33 -37 -70 0
-64 -8 4 0
26 -15 -18 0
-2 -11 -43 0
-31 -57 26 0
17 39 58 0
-43 18 36 0
68 -14 67 0
37 34 -50 0
52 28 -11 0
-49 -10 37 0
-5 6 -18 0
-15 -61 30 0
-38 -35 64 0
-22 15 -70 0
17 -18 43 0
36 -7 57 0
31 65 -52 0
62 -46 -47 0
24 3 2 0
48 -47 65 0
5 -26 30 0
54 4 70 0
37 -15 -63 0
42 -58 -30 0
-69 -65 50 0
-65 48 45 0
50 -21 24 0
42 24 -38 0
-17 32 -67 0
30 43 -35 0
29 -19 -53 0
46 -51 9 0
-7 -27 -5 0
54 22 -8 0
-28 -23 -2 0
26 -55 37 0
10 7 -5 0
-1 26 -5 0
-14 -26 -31 0
40 -12 11 0
-49 39 -21 0
55 47 38 0
-65 32 66 0
1 -32 26 0
-70 -36 -63 0
55 19 -34 0
-57 -40 -56 0
60 -62 -6 0
13 47 39 0
51 -70 -3 0
11 32 -1 0
16 52 32 0
-45 -50 53 0
-4 -55 69 0
-6 -49 50 0
20 -30 69 0
28 16 14 0
-26 66 56 0
-41 23 5 0
12 -9 -50 0
-40 9 -35 0
53 -8 -56 0
