p cnf 70 265
-5 -6 24 0
-62 11 63 0
32 -42 -41 0
67 36 -35 0
41 -64 -42 0
14 46 -8 0
-41 56 46 0
20 61 -67 0
-24 2 -56 0
38 -41 21 0
66 33 17 0
16 36 -63 0
-32 43 -27 0
-21 -41 -24 0
27 28 49 0
-32 -22 20 0
-39 15 9 0
45 41 13 0
17 57 4 0
-36 -49 58 0
66 5 35 0
-23 33 56 0
12 54 59 0
4 43 -3 0
-31 36 22 0
-45 58 -39 0
-35 -45 65 0
30 63 -69 0
23 -50 27 0
-2 46 50 0
36 11 -27 0
4 39 8 0
-33 -30 56 0
11 -16 -41 0
33 -7 44 0
-31 52 8 0
6 42 -49 0
-55 -46 -12 0
-10 52 -40 0
-21 33 44 0
-15 -10 34 0
11 67 6 0
-56 23 29 0
-4 39 62 0
47 55 9 0
-63 -18 44 0
-2 6 -38 0
-48 12 -57 0
58 13 -51 0
-57 -67 60 0
21 -27 -64 0
-19 -22 13 0
54 38 -52 0
-10 52 -2 0
41 54 -51 0
7 10 -44 0
27 50 44 0
-19 47 44 0
-57 33 -37 0
13 -32 -65 0
-5 67 -23 0
27 -8 -16 0
-31 2 -47 0
13 -57 44 0
-53 40 32 0
-50 36 51 0
30 55 -21 0
-17 27 42 0
-25 -48 65 0
35 29 -38 0
-22 40 38 0
-28 -12 29 0
-49 16 20 0
-29 -56 -58 0
-18 35 -50 0
56 37 4 0
5 45 -12 0
68 -59 -52 0
70 45 -2 0
-62 18 3 0
1 53 45 0
17 1 -67 0
-50 -54 -25 0
-70 -25 -15 0
35 17 -18 0
23 -10 -62 0
14 -55 -47 0
63 30 15 0
-48 13 -47 0
27 39 -53 0
12 -48 44 0
-22 31 6 0
34 -25 49 0
-41 -68 -22 0
-49 -44 70 0
58 -67 -38 0
-31 4 16 0
44 -7 -66 0
-61 27 -50 0
30 -31 -70 0
60 -16 -43 0
-12 64 -22 0
29 -5 27 0
-30 60 21 0
-44 -3 8 0
24 -68 -53 0
-30 -19 -62 0
70 -4 50 0
-37 26 -27 0
-6 2 -5 0
63 38 30 0
-53 -40 36 0
24 -68 -19 0
-1 58 26 0
51 56 -2 0
-15 -10 -54 0
-65 2 -60 0
39 4 59 0
-65 40 -3 0
22 -41 -34 0
-20 18 9 0
19 -40 -30 0
-2 44 51 0
-38 -48 13 0
25 -58 -51 0
-16 -14 13 0
70 -41 -61 0
56 60 70 0
-11 -12 -60 0
-23 -40 26 0
-51 -70 -18 0
16 12 18 0
-47 50 -9 0
33 49 -38 0
3 10 34 0
53 56 -6 0
22 62 31 0
64 16 -31 0
-30 -29 17 0
-68 39 44 0
-52 -50 -19 0
-10 5 54 0
-20 31 -33 0
-53 -13 61 0
-55 14 9 0
34 -29 -61 0
1 39 -27 0
61 -23 -33 0
-37 -24 -29 0
25 9 4 0
54 -45 -46 0
49 -54 -46 0
-63 56 -40 0
26 1 -50 0
-13 -15 30 0
-40 29 -54 0
53 -27 -24 0
6 -44 18 0
60 -36 69 0
-39 -69 -59 0
-23 42 -9 0
42 -11 63 0
-27 -15 57 0
31 65 33 0
52 -47 35 0
-30 64 -1 0
6 28 -21 0
36 -33 -41 0
10 58 30 0
-53 -12 7 0
-50 -33 19 0
-16 18 -45 0
-68 -57 51 0
57 31 59 0
45 64 -60 0
-53 -3 69 0
-56 22 -57 0
-46 -62 7 0
32 21 -29 0
-54 12 -48 0
-62 46 -5 0
-63 56 17 0
49 28 58 0
-41 12 -68 0
-30 37 57 0
37 -10 -11 0
-46 69 -2 0
-39 19 -59 0
4 -7 -27 0
55 57 -70 0
-46 -41 44 0
68 15 -50 0
1 -6 -21 0
-38 11 2 0
64 62 69 0
-2 -8 -46 0
-42 69 35 0
3 21 -38 0
-4 21 -67 0
11 -34 -47 0
-46 31 9 0
-3 -24 56 0
-41 36 67 0
-40 62 43 0
-14 21 -52 0
31 -42 -6 0
-1 35 -28 0
-42 -21 4 0
39 59 -21 0
34 -46 9 0
7 33 41 0
65 38 59 0
38 54 60 0
33 70 4 0
52 -39 -11 0
-23 17 34 0
19 59 62 0
-55 18 7 0
57 -15 56 0
-53 17 42 0
68 62 30 0
-17 -26 -27 0
10 -51 31 0
-26 66 -12 0
56 -66 47 0
28 -46 -60 0
-62 -18 -11 0
36 55 -59 0
18 -66 68 0
35 -52 -69 0
32 8 -65 0
39 -58 56 0
41 -18 27 0
27 -60 -6 0
-33 52 12 0
-55 32 4 0
-46 -9 54 0
56 -2 19 0
-67 -57 22 0
-32 7 -17 0
-43 -64 -44 0
-32 -34 45 0
10 57 37 0
-36 -33 24 0
-48 4 46 0
15 -54 61 0
-12 -35 1 0
68 -59 54 0
-31 68 -3 0
-47 45 -56 0
-24 -41 6 0
-63 41 26 0
-43 -20 38 0
47 57 -7 0
36 -19 7 0
40 10 -23 0
-33 50 -46 0
-39 -50 27 0
34 6 -67 0
23 -12 -46 0
-11 -5 32 0
31 26 -68 0
-28 -7 -53 0
-61 51 14 0
-4 -69 8 0
