p cnf 70 305
31 24 50 0
42 25 2 0
-30 -21 -38 0
67 29 -70 0
7 69 -23 0
9 -17 -59 0
-59 6 -54 0
43 13 -61 0
26 15 -20 0
31 -52 4 0
25 9 -29 0
25 -67 21 0
-66 49 23 0
-10 -43 15 0
21 -68 11 0
9 48 -30 0
67 63 -51 0
37 -57 42 0
27 51 14 0
-58 38 -48 0
39 50 -20 0
36 -31 66 0
58 -49 22 0
13 15 -53 0
-20 -32 57 0
-11 52 42 0
60 41 56 0
52 -49 40 0
18 -17 -16 0
47 24 -26 0
40 41 -53 0
24 -31 69 0
-12 33 -49 0
-10 -61 -5 0
-53 -37 59 0
-30 5 -37 0
-3 -17 46 0
-34 69 -50 0
-45 15 19 0
-4 -45 18 0
31 46 -67 0
46 -61 40 0
43 10 -36 0
52 54 1 0
-58 14 -57 0
42 -55 -61 0
-10 -36 58 0
57 16 53 0
52 41 22 0
56 1 -2 0
54 48 -51 0
-10 69 -22 0
-7 44 -68 0
-35 61 7 0
-5 -65 -63 0
-12 45 -16 0
12 40 -9 0
70 49 17 0
62 54 -43 0
-29 -31 -59 0
59 42 7 0
-19 45 -4 0
65 -9 -66 0
-32 -16 -61 0
-32 -37 46 0
-69 -7 -36 0
-46 -28 -43 0
-40 3 45 0
40 43 33 0
31 -28 -69 0
67 10 -32 0
41 -56 22 0
-37 66 -43 0
-34 -23 -4 0
32 -70 -22 0
-31 -66 39 0
9 62 -11 0
-27 -11 35 0
48 40 -65 0
38 -10 -33 0
31 39 -6 0
-24 -19 41 0
-18 33 11 0
41 34 15 0
-58 -48 -60 0
-42 8 -18 0
-29 -25 70 0
51 2 35 0
45 68 24 0
62 -21 56 0
-55 21 48 0
68 -54 67 0
47 -40 67 0
52 -53 -12 0
59 -35 27 0
-22 -58 -62 0
-55 -44 24 0
52 -14 -35 0
-13 67 -59 0
-27 -39 36 0
-59 46 30 0
8 34 39 0
13 34 -54 0
54 56 -3 0
-37 60 -44 0
-30 63 -54 0
67 -31 30 0
21 18 -6 0
-20 22 -3 0
-17 54 38 0
-4 11 44 0
32 -66 21 0
19 29 -3 0
-7 -45 -63 0
-39 35 9 0
59 8 -26 0
-30 29 52 0
48 -55 -54 0
-11 -29 -17 0
-4 -18 -9 0
-55 -25 -27 0
55 -57 50 0
32 38 48 0
3 33 -42 0
-29 -36 7 0
58 6 69 0
-1 -54 -47 0
-9 60 -57 0
-29 5 -18 0
27 11 -59 0
17 15 -51 0
-70 48 47 0
-68 -6 -25 0
11 16 2 0
-13 66 -38 0
-63 59 -11 0
-45 34 35 0
29 14 -50 0
65 -35 -12 0
42 66 -53 0
-19 12 17 0
-46 45 -33 0
37 -13 45 0
-22 -63 19 0
26 -62 -12 0
-68 13 -64 0
57 -13 23 0
21 -46 -28 0
30 -1 -7 0
-16 59 -58 0
57 14 11 0
33 11 44 0
44 17 35 0
-33 -48 -44 0
-35 37 -36 0
1 35 -18 0
42 14 -6 0
38 70 45 0
63 -12 -66 0
43 48 -49 0
31 -2 -33 0
52 -56 -13 0
52 -65 -27 0
55 -31 -16 0
53 41 -54 0
46 54 -57 0
-13 -55 -3 0
3 -14 -13 0
12 -26 56 0
3 -65 -66 0
7 26 69 0
32 -4 24 0
-13 -52 -59 0
-8 2 15 0
8 69 -33 0
8 -9 18 0
-24 41 60 0
-70 -48 34 0
-19 -59 -18 0
66 -70 14 0
-70 -56 28 0
-36 26 -31 0
-62 -69 -50 0
62 -61 69 0
-11 -51 31 0
10 37 47 0
-70 29 28 0
52 22 -35 0
6 25 40 0
-44 47 55 0
-19 61 -23 0
-16 -19 -63 0
-7 62 13 0
61 -32 67 0
16 -22 -36 0
66 -64 -49 0
-61 55 21 0
-38 64 43 0
-26 31 45 0
-68 3 55 0
-7 35 10 0
-19 -43 -52 0
-10 69 -15 0
45 -14 -66 0
-46 -26 -17 0
-17 -11 -22 0
29 70 -16 0
42 -46 31 0
-2 3 46 0
64 50 61 0
-16 53 17 0
-70 69 -66 0
65 70 34 0
-43 -67 61 0
-39 10 16 0
19 -33 18 0
60 55 -62 0
25 56 -21 0
68 17 61 0
65 39 -40 0
-19 63 10 0
-28 14 -4 0
4 28 27 0
-13 -38 -5 0
-24 63 -53 0
20 -1 33 0
-13 -22 -40 0
40 42 66 0
3 -17 -37 0
-66 30 -46 0
-69 -34 -13 0
-21 -40 68 0
41 -1 -29 0
-49 -17 59 0
42 -47 -52 0
-35 -51 14 0
-47 4 -19 0
36 -64 -63 0
6 -5 20 0
4 -9 18 0
61 56 66 0
-6 -52 -69 0
-33 12 13 0
-54 -43 -2 0
59 -31 -6 0
-63 53 5 0
22 -45 -21 0
62 -46 6 0
-20 -25 18 0
40 34 8 0
-34 -14 -43 0
-56 -7 45 0
-14 -38 -39 0
62 45 -8 0
45 -43 12 0
18 -69 -61 0
67 26 13 0
-13 -24 44 0
-25 -66 -30 0
2 -56 35 0
20 -27 -46 0
-67 -60 33 0
-38 -45 -12 0
14 10 66 0
-68 11 -60 0
-68 14 62 0
48 58 16 0
-41 -38 -45 0
24 -41 33 0
-15 -57 -63 0
-26 58 -36 0
-56 15 61 0
-7 22 -10 0
-42 -51 -61 0
7 -70 -3 0
-32 -63 -3 0
-10 -3 -47 0
-1 62 -38 0
1 58 49 0
51 -37 7 0
-28 43 -34 0
-6 67 1 0
52 38 -62 0
62 66 -63 0
-16 29 25 0
31 8 46 0
-46 -40 -63 0
-11 5 44 0
-24 54 31 0
6 68 -47 0
-62 -53 25 0
30 -35 -4 0
-49 44 25 0
-13 3 -22 0
27 -50 32 0
3 -54 14 0
6 2 -55 0
-4 -37 26 0
51 -53 -18 0
-21 -53 -54 0
11 -41 44 0
-49 -59 -3 0
14 -60 -6 0
20 -4 -48 0
52 -8 -7 0
