p cnf 70 260
59 44 32 0
-22 30 -12 0
57 36 68 0
53 36 -48 0
-44 -60 33 0
-48 -22 16 0
-19 9 58 0
50 5 -3 0
44 30 -17 0
52 -20 -43 0
-67 20 54 0
12 40 -25 0
-3 50 17 0
-16 58 3 0
-33 24 -54 0
64 -43 -48 0
8 60 -69 0
5 -26 41 0
-2 -12 53 0
-28 55 62 0
61 66 -19 0
-44 60 -50 0
29 36 -20 0
-69 16 7 0
-38 45 -35 0
31 -41 7 0
68 -49 -26 0
-44 46 33 0
-18 -42 -3 0
-34 30 1 0
-3 -51 66 0
-65 54 -55 0
66 -41 69 0
-67 21 -69 0
69 12 -49 0
15 -22 -35 0
-54 6 -69 0
-28 -17 -13 0
40 -6 -32 0
-5 19 32 0
-59 -23 -35 0
32 -23 42 0
31 -38 50 0
-18 -59 -58 0
57 16 -49 0
46 29 62 0
-1 26 -66 0
33 -21 -48 0
-25 -22 30 0
62 -4 -44 0
-51 9 -22 0
63 66 46 0
-45 49 28 0
-63 -2 8 0
-33 64 -70 0
28 -24 -8 0
17 26 53 0
-20 -64 8 0
-43 46 -34 0
47 29 -11 0
58 -69 -20 0
25 58 -22 0
-65 6 -51 0
41 -30 2 0
-13 23 11 0
-56 -16 17 0
36 -64 -55 0
-4 -26 -29 0
-20 30 29 0
59 50 -62 0
-1 43 -49 0
67 53 48 0
10 25 19 0
2 54 51 0
44 14 66 0
-64 -59 3 0
-22 9 -48 0
-37 32 -56 0
9 41 -27 0
-52 58 -59 0
-54 -61 -28 0
64 -62 -59 0
-70 41 -19 0
10 -31 70 0
5 -46 60 0
37 53 15 0
1 6 -63 0
-45 -56 -10 0
29 11 68 0
42 -64 20 0
-57 12 22 0
14 31 15 0
-7 -22 -70 0
-5 -28 52 0
66 19 24 0
-38 64 59 0
4 -42 68 0
-46 35 -45 0
57 -65 -28 0
5 -30 -13 0
34 -60 13 0
36 10 -15 0
-23 -26 -19 0
-32 57 34 0
-58 -12 17 0
-55 36 -37 0
-20 22 -27 0
7 -65 26 0
-52 11 -5 0
-20 44 -23 0
-54 -44 4 0
-63 -36 -61 0
-24 -47 28 0
-20 36 44 0
-8 51 -31 0
6 69 -49 0
69 -52 66 0
2 -34 21 0
-10 56 -33 0
-1 -59 40 0
19 49 -6 0
-58 10 -13 0
13 -27 58 0
59 -69 -58 0
63 37 7 0
-59 -39 -55 0
11 -31 -70 0
64 -47 16 0
31 40 -39 0
41 46 -29 0
-51 29 -31 0
-31 4 -48 0
24 -13 15 0
40 20 -16 0
65 -67 55 0
32 -19 37 0
29 -4 6 0
44 -56 -15 0
70 34 -4 0
45 28 9 0
-52 58 54 0
-19 -69 25 0
-9 67 11 0
-31 37 35 0
-47 -69 -67 0
2 -64 -16 0
-49 13 -57 0
-26 -51 36 0
-37 4 33 0
5 -45 26 0
-1 23 -10 0
-12 -57 -24 0
-53 -37 -6 0
69 -29 -51 0
46 -19 -20 0
-17 57 37 0
43 -50 62 0
-21 -9 47 0
48 -40 -13 0
12 5 -68 0
34 52 -50 0
69 1 -21 0
-52 49 4 0
40 46 -47 0
48 -12 46 0
49 -52 -26 0
-50 63 -68 0
-19 61 -52 0
-1 32 69 0
-68 -11 -58 0
56 -27 -61 0
-70 -48 -68 0
70 38 21 0
-48 -31 -51 0
60 38 -7 0
-56 58 34 0
65 50 51 0
45 44 23 0
-18 13 -20 0
-35 -33 -48 0
-20 -18 34 0
-67 63 -39 0
-8 51 31 0
8 -31 -69 0
-51 4 -1 0
-39 -51 60 0
54 44 -11 0
-66 56 11 0
59 43 -40 0
-67 -4 -66 0
-11 -4 21 0
-2 65 -60 0
33 -12 -31 0
62 -14 -50 0
24 -15 11 0
28 38 65 0
17 -35 11 0
-14 33 -28 0
-13 -16 9 0
-60 62 54 0
-36 -70 -46 0
-41 -58 -35 0
-45 -17 -59 0
43 -10 4 0
54 -10 -59 0
-5 30 18 0
-31 -4 -25 0
-59 -48 -13 0
24 -68 58 0
-34 63 -48 0
-13 -4 -20 0
-25 -55 44 0
31 7 47 0
69 55 -23 0
24 36 4 0
-51 -26 -36 0
22 7 54 0
1 19 39 0
-59 45 -46 0
39 -30 -54 0
-25 14 -31 0
22 49 17 0
29 41 5 0
-14 27 -62 0
-69 39 60 0
24 -22 -36 0
10 1 5 0
-15 -60 -34 0
-67 65 -41 0
53 -5 -67 0
-37 -28 -52 0
-42 32 67 0
-1 -53 34 0
-24 -49 -54 0
45 -63 -57 0
-9 -61 31 0
-64 30 27 0
-17 -24 40 0
-18 -36 -31 0
-6 16 -53 0
-66 -56 -4 0
2 60 27 0
-17 -55 38 0
61 67 55 0
-64 -49 -55 0
-2 8 -52 0
69 -34 -47 0
-5 -48 68 0
7 -45 38 0
-35 26 -19 0
17 -9 7 0
-17 58 20 0
-26 5 -19 0
-67 2 23 0
11 -45 26 0
-28 20 -36 0
47 42 -20 0
22 29 33 0
40 8 64 0
28 -39 41 0
