p cnf 70 310
-7 31 41 0
41 46 1 0
48 38 21 0
-41 -55 47 0
-43 -19 14 0
12 31 -30 0
8 21 12 0
13 70 24 0
32 -55 5 0
-26 -47 -46 0
-42 -39 6 0
-34 -67 -18 0
-44 -56 -18 0
11 23 27 0
9 58 -42 0
42 -67 -15 0
-19 5 -49 0
-68 70 51 0
47 -22 15 0
-52 55 -47 0
-41 -63 4 0
68 -59 24 0
-29 40 -36 0
30 14 -21 0
-60 45 -25 0
-7 41 -28 0
-27 7 31 0
-41 1 69 0
43 -16 -42 0
2 28 -37 0
-69 -12 -8 0
-67 -29 -38 0
41 -14 17 0
40 -23 -38 0
-11 49 6 0
-54 44 -50 0
-13 -43 -51 0
49 55 32 0
-63 24 23 0
59 -27 -62 0
-18 -5 41 0
-25 -14 -55 0
-51 37 -68 0
-3 10 35 0
-32 -14 -49 0
63 -43 -65 0
27 13 33 0
-5 -64 -34 0
-52 1 -69 0
18 26 -29 0
-23 51 -8 0
-64 66 45 0
-45 -58 -7 0
-9 47 -29 0
16 1 17 0
50 -28 -69 0
-50 22 54 0
-29 20 53 0
-56 -7 33 0
47 -8 -1 0
63 -8 -37 0
65 -38 -28 0
-57 -21 29 0
58 30 28 0
5 3 16 0
57 -49 -70 0
-24 18 21 0
-5 37 -50 0
-59 54 -63 0
7 -2 -50 0
43 64 -4 0
9 -47 -21 0
16 -58 -67 0
3 35 -56 0
10 33 -34 0
1 -4 53 0
-43 49 47 0
60 2 -30 0
11 -56 -43 0
-21 23 14 0
-22 -2 -1 0
36 -10 -35 0
7 -29 47 0
57 68 5 0
-49 5 26 0
34 51 -41 0
-41 -40 -21 0
-40 -51 -31 0
-12 -48 27 0
57 65 -28 0
19 8 38 0
9 62 35 0
7 4 -34 0
5 -65 -60 0
10 20 -3 0
34 32 35 0
70 56 -55 0
-60 51 -59 0
-49 -34 25 0
29 26 48 0
33 18 -7 0
26 -17 69 0
-6 17 -54 0
59 -42 -8 0
38 -2 55 0
47 19 67 0
-45 3 55 0
-36 -7 12 0
18 -68 53 0
51 3 -9 0
62 -5 28 0
-53 51 -60 0
47 -50 4 0
-16 5 44 0
-45 27 -16 0
65 -33 -26 0
23 41 25 0
-48 52 -7 0
-27 -49 37 0
-32 61 -41 0
18 -64 -63 0
52 44 7 0
-24 1 35 0
42 -61 -5 0
12 18 -54 0
67 -48 32 0
-65 -66 -20 0
-69 43 64 0
-38 69 18 0
-55 4 -35 0
-39 -63 -70 0
42 37 2 0
70 11 -45 0
34 -10 55 0
-61 -28 4 0
-69 -1 53 0
45 16 42 0
46 14 -54 0
68 64 60 0
57 1 29 0
24 12 -50 0
66 40 -11 0
-69 -34 64 0
3 19 -40 0
45 30 18 0
11 19 -49 0
-45 28 13 0
-25 -16 59 0
20 8 32 0
-13 61 21 0
58 12 29 0
-51 -1 22 0
23 -6 -38 0
1 -44 -69 0
67 -43 -47 0
-70 35 30 0
-24 -8 -42 0
-27 -51 -59 0
50 -67 -25 0
-18 -44 -33 0
-18 -7 3 0
-59 -47 -41 0
-28 -42 20 0
-37 67 34 0
10 29 57 0
37 10 -1 0
4 40 66 0
-70 37 -45 0
21 59 -2 0
-57 65 -69 0
-33 44 -15 0
33 -28 58 0
44 -19 45 0
27 -46 51 0
64 -40 -44 0
-54 -6 -31 0
26 69 1 0
14 -36 9 0
-59 41 64 0
-69 -67 49 0
-29 8 -34 0
-56 2 43 0
36 66 -53 0
-41 -4 66 0
-34 -69 65 0
-7 -46 -40 0
70 -17 22 0
-21 6 -37 0
1 29 49 0
27 65 -18 0
65 -41 5 0
-10 -20 19 0
-60 45 -55 0
69 7 3 0
15 -25 -11 0
17 44 66 0
-35 -9 -61 0
-36 56 9 0
-50 67 49 0
68 41 -8 0
11 2 -42 0
18 -19 -24 0
69 -4 54 0
-69 29 -46 0
-26 37 67 0
-19 31 -63 0
36 -6 28 0
-5 24 -61 0
-6 -43 -53 0
28 27 43 0
61 58 -65 0
-24 -37 -7 0
18 69 40 0
4 57 52 0
-26 21 -53 0
37 63 -10 0
-3 12 -10 0
36 7 35 0
-36 -62 -46 0
-46 -34 25 0
27 -22 -15 0
-55 -30 63 0
-58 49 5 0
-49 -60 32 0
-24 52 -57 0
-35 41 -31 0
-13 3 31 0
54 -7 -11 0
25 -14 -35 0
-1 27 -68 0
4 -68 -31 0
-57 -1 -64 0
30 63 44 0
-57 -7 40 0
64 28 -22 0
68 -3 19 0
-19 -35 30 0
-55 44 -5 0
-54 37 53 0
66 -7 26 0
17 -12 -8 0
52 14 67 0
10 64 -16 0
13 -54 -34 0
3 66 -33 0
26 -70 8 0
-22 37 61 0
-17 32 25 0
6 -68 -55 0
-7 -50 24 0
68 6 -21 0
-26 24 -51 0
-10 22 48 0
-70 -17 -58 0
-53 -28 52 0
63 17 31 0
4 31 23 0
32 -16 14 0
28 -45 39 0
-43 -25 24 0
-19 34 -51 0
14 -57 -10 0
-35 -5 29 0
-11 -44 68 0
11 -12 -58 0
-49 -3 -50 0
-10 -39 34 0
-69 -27 -39 0
-10 -6 -64 0
20 -55 -34 0
-47 -56 36 0
-53 67 -50 0
-55 -42 -10 0
59 69 -28 0
28 -7 -68 0
-35 -38 68 0
27 -17 -41 0
46 49 2 0
68 -27 65 0
-7 -48 34 0
-25 -59 2 0
-27 -66 -24 0
-38 9 40 0
68 23 61 0
66 20 -11 0
52 33 -19 0
-13 17 -35 0
-13 -37 -9 0
-29 57 -35 0
49 66 28 0
-66 59 -6 0
19 -12 24 0
-19 -47 16 0
-37 -52 -1 0
13 -70 -29 0
16 -39 -67 0
21 69 -49 0
66 -1 -48 0
1 57 -3 0
-69 -47 41 0
-65 -38 -13 0
26 28 -14 0
12 19 -4 0
24 19 22 0
-33 44 -32 0
40 -50 -69 0
13 -29 48 0
29 -19 68 0
11 3 -39 0
-38 44 69 0
