p cnf 70 285
-66 -68 -44 0
44 -69 29 0
48 34 -5 0
-7 24 45 0
-15 -31 -68 0
61 47 -48 0
-21 33 -43 0
-15 -44 -55 0
68 50 -65 0
6 24 -62 0
-52 45 -66 0
65 -63 -9 0
70 56 -41 0
22 14 -12 0
-13 36 14 0
-29 -32 -24 0
44 65 8 0
46 42 -60 0
-18 -30 -43 0
27 -25 -57 0
-55 64 -10 0
-22 25 -36 0
-47 -8 10 0
42 43 61 0
-55 41 40 0
29 43 -56 0
-58 45 -40 0
-49 40 -46 0
38 -18 49 0
-60 -50 22 0
-32 8 -10 0
-69 -3 -52 0
-37 -15 -20 0
19 -47 30 0
18 53 49 0
36 -26 -8 0
61 -36 1 0
8 37 14 0
9 -16 -69 0
14 -7 69 0
40 -46 -16 0
35 -10 25 0
-7 -1 53 0
-13 36 6 0
36 -57 -7 0
-38 56 -10 0
56 -50 -44 0
54 -1 -17 0
-28 24 25 0
-70 16 -20 0
-3 14 64 0
-40 62 -68 0
-35 66 40 0
32 29 9 0
-23 -11 9 0
-55 30 50 0
-56 -2 -12 0
48 44 19 0
40 10 -45 0
7 -19 -4 0
-2 -21 67 0
61 -55 -50 0
24 15 -41 0
13 -54 62 0
58 -26 -43 0
63 -10 30 0
55 -63 -9 0
30 -11 -24 0
-65 -32 66 0
-32 -55 -16 0
-34 -27 17 0
-20 -13 34 0
31 -41 33 0
58 -16 14 0
-11 -44 -3 0
13 -67 46 0
-29 26 52 0
27 13 35 0
-54 2 62 0
28 -16 -24 0
20 29 -19 0
8 -53 69 0
20 -19 57 0
68 18 -14 0
-65 -12 -57 0
-68 26 33 0
-40 52 -33 0
-5 -46 38 0
-17 -63 -6 0
-11 -7 -47 0
-9 39 56 0
-37 -3 18 0
57 -16 -1 0
24 15 36 0
18 59 -24 0
7 -21 41 0
24 -5 -48 0
-12 -55 50 0
21 42 20 0
-39 -8 -42 0
31 69 50 0
-37 67 22 0
14 43 -20 0
61 -69 -68 0
19 -29 22 0
-22 -51 -45 0
-45 48 -16 0
29 -18 50 0
27 -57 30 0
24 -15 -10 0
46 -53 57 0
-19 -44 52 0
-30 -33 -63 0
18 -51 40 0
53 -37 -42 0
-7 9 -4 0
-46 -12 38 0
20 -62 -54 0
6 57 33 0
-55 -45 -69 0
43 -31 -55 0
-69 60 5 0
-23 7 -58 0
-58 21 -39 0
51 2 3 0
17 -1 38 0
63 11 13 0
-62 50 5 0
50 26 -40 0
-43 26 19 0
32 63 -61 0
69 19 35 0
65 37 -69 0
70 -35 28 0
47 12 -23 0
51 -15 13 0
-65 -66 50 0
-4 30 -21 0
-21 11 36 0
-70 -17 3 0
6 38 32 0
34 13 -10 0
-54 -28 -52 0
56 70 -4 0
48 67 28 0
67 19 -9 0
11 -55 6 0
14 23 2 0
2 -13 -22 0
-3 -13 38 0
14 -61 19 0
69 62 -66 0
-6 -11 4 0
6 -12 50 0
-55 -56 -60 0
-67 29 -49 0
63 -23 7 0
-1 -67 -37 0
-54 66 26 0
-62 1 18 0
58 -31 -45 0
36 54 51 0
-27 -40 -10 0
15 55 50 0
-1 -6 11 0
-55 -41 -70 0
63 66 -31 0
53 12 68 0
-36 -41 48 0
-54 33 36 0
-5 66 -61 0
-57 -5 38 0
55 25 -34 0
-66 42 -8 0
-5 45 50 0
41 9 23 0
70 -41 9 0
-9 13 50 0
-61 -23 -70 0
45 -56 -3 0
-18 14 -8 0
-53 58 56 0
41 57 40 0
-45 -68 57 0
-3 -31 -30 0
-45 12 15 0
-59 -18 -5 0
12 36 3 0
17 53 -55 0
21 -45 33 0
27 -51 -40 0
61 23 19 0
1 -63 22 0
-3 -54 1 0
34 -25 67 0
53 -48 38 0
19 28 -2 0
66 30 -64 0
55 45 -62 0
20 -70 15 0
69 9 -56 0
36 -42 -32 0
4 21 51 0
35 19 -1 0
68 -37 27 0
21 -8 10 0
60 -27 43 0
40 -51 56 0
23 -16 40 0
-27 14 57 0
-47 -2 -8 0
-66 -58 43 0
-2 1 17 0
40 53 9 0
-41 37 -47 0
-8 -32 -44 0
20 53 -55 0
-45 1 16 0
-61 51 -64 0
42 -70 -57 0
40 -52 24 0
21 2 35 0
66 -23 -4 0
-22 -46 -29 0
-60 7 -45 0
35 46 50 0
-9 59 -44 0
-37 66 12 0
58 -25 -21 0
67 40 -36 0
3 -11 40 0
63 -3 39 0
-7 -6 -47 0
67 65 21 0
-48 61 -54 0
31 -51 -47 0
5 -10 -51 0
56 -42 3 0
70 2 -49 0
-47 -20 -57 0
41 2 -43 0
-32 -68 12 0
-12 -33 55 0
-46 -32 -23 0
-51 -27 30 0
-61 52 56 0
-28 -12 48 0
26 49 62 0
-10 11 5 0
49 -63 67 0
-63 65 28 0
-3 -37 -60 0
-22 -38 -65 0
27 -9 -45 0
1 -32 -60 0
-46 8 19 0
56 40 36 0
-25 -13 52 0
39 -48 68 0
-17 -13 -60 0
41 -10 18 0
57 37 -16 0
57 -51 -18 0
14 -62 40 0
44 18 -66 0
-57 -7 -37 0
-16 -69 36 0
-3 -44 -42 0
46 48 -31 0
-26 46 34 0
29 -8 -60 0
-3 62 -39 0
-26 -1 -47 0
-11 21 37 0
1 59 -47 0
8 -3 31 0
-6 -67 34 0
-69 9 -59 0
-21 13 57 0
-28 -1 -60 0
47 49 -69 0
-40 64 11 0
-70 -29 55 0
70 -61 46 0
47 -65 44 0
