p cnf 70 265
-31 59 49 0
16 -8 -53 0
34 57 -33 0
23 -10 -7 0
2 63 -69 0
20 57 -39 0
20 -17 14 0
-48 24 -67 0
-36 -12 -47 0
49 -62 -30 0
-50 -39 58 0
-54 41 21 0
-38 19 17 0
52 -10 4 0
60 61 33 0
-35 66 28 0
2 14 -42 0
-58 -50 6 0
30 38 -61 0
3 -40 -52 0
36 -2 50 0
12 -40 -51 0
-62 -47 23 0
-39 -7 38 0
52 48 15 0
-42 9 30 0
20 14 45 0
20 -56 58 0
54 -49 8 0
21 -23 -56 0
58 7 -9 0
-29 -37 13 0
-54 -56 15 0
-65 -51 16 0
45 -6 -28 0
31 -40 11 0
14 -4 -37 0
62 35 48 0
7 68 -31 0
8 70 -58 0
-58 -55 48 0
2 -59 68 0
14 55 56 0
-1 70 -47 0
54 -63 -17 0
25 -46 41 0
14 -51 -49 0
-68 -4 -38 0
-27 -42 17 0
20 -53 16 0
30 63 7 0
-54 63 48 0
-46 41 11 0
-68 22 6 0
-48 13 -56 0
61 40 10 0
-61 37 -63 0
5 -20 -47 0
-26 -1 -55 0
65 14 -63 0
-65 53 8 0
-70 18 -34 0
54 62 -47 0
-65 -16 -46 0
-50 29 35 0
31 23 21 0
-15 -14 11 0
30 -46 65 0
8 -57 -26 0
-66 70 28 0
-43 -39 -67 0
-13 -1 -18 0
-69 15 17 0
-30 -51 -44 0
-40 -3 -6 0
30 29 61 0
-4 -10 55 0
66 46 53 0
-7 -9 -28 0
-18 -24 -2 0
-19 31 17 0
48 -10 19 0
17 38 9 0
37 -38 -49 0
-69 26 -21 0
4 -62 31 0
-20 1 -64 0
15 -46 -37 0
67 -1 -69 0
52 -44 -7 0
-45 10 -30 0
-41 44 -52 0
-65 -7 -60 0
64 -7 -20 0
-16 33 -31 0
-23 9 -51 0
26 57 45 0
-9 -28 5 0
-15 41 25 0
-14 16 7 0
-68 25 60 0
-23 -68 -2 0
-3 -41 -9 0
-21 11 62 0
-40 -24 -45 0
-53 46 4 0
-50 51 22 0
59 8 67 0
15 -18 32 0
8 -16 -40 0
-70 -6 48 0
25 14 -10 0
-46 2 -20 0
48 52 -40 0
-50 -11 62 0
42 5 -19 0
-52 -15 -63 0
-57 52 -56 0
-46 55 23 0
-38 21 42 0
-4 -45 69 0
22 61 -67 0
7 46 15 0
-3 37 -9 0
9 -2 51 0
64 -42 69 0
-32 2 35 0
18 50 25 0
20 18 13 0
-29 -36 51 0
-43 -61 -42 0
-19 25 -24 0
66 -20 -12 0
-58 21 -26 0
-48 -70 -3 0
-27 -43 32 0
69 -44 -17 0
38 1 -39 0
-51 -40 -28 0
23 -63 -6 0
68 62 -63 0
-69 35 -48 0
19 -43 52 0
62 -37 48 0
8 -48 6 0
-36 60 23 0
24 -29 57 0
69 -8 9 0
49 -40 -20 0
21 -31 -14 0
59 -41 -37 0
62 16 -58 0
-52 -12 -16 0
-67 13 46 0
34 -63 -6 0
-68 -48 17 0
-24 -60 68 0
14 -2 -64 0
-17 -49 59 0
-31 -34 -47 0
-18 -22 70 0
-16 56 34 0
-60 5 45 0
30 -42 -15 0
-58 -14 39 0
70 -20 -55 0
2 -11 -70 0
25 2 -13 0
-16 3 68 0
26 22 -34 0
-70 57 50 0
-55 44 58 0
-64 4 -19 0
56 39 -47 0
-62 -14 -17 0
-32 -29 21 0
-68 46 31 0
41 -60 69 0
-21 10 36 0
-38 13 5 0
8 2 -51 0
7 42 31 0
23 48 -26 0
40 30 52 0
68 56 -53 0
36 -53 70 0
-11 32 -27 0
-64 -41 12 0
44 30 -12 0
7 19 -57 0
-54 -68 -38 0
7 2 -36 0
2 -54 -9 0
59 -66 -51 0
27 -24 -49 0
27 51 53 0
30 -47 -42 0
-56 -65 -9 0
-24 -1 -26 0
31 49 -9 0
-20 -69 -62 0
19 61 34 0
-25 -60 36 0
3 5 -67 0
36 17 22 0
-5 11 53 0
13 -66 54 0
-60 35 -37 0
13 10 66 0
47 -30 9 0
23 -8 25 0
-18 45 47 0
-41 -54 31 0
-28 -47 51 0
15 -40 35 0
10 39 -48 0
-14 57 -39 0
-8 4 -66 0
11 -19 -2 0
-62 -20 -48 0
17 43 22 0
-3 24 68 0
6 -65 69 0
-42 30 61 0
-11 55 -40 0
-31 16 50 0
31 5 37 0
15 16 18 0
-51 65 43 0
-24 16 -29 0
14 28 -30 0
-18 -43 38 0
21 3 -52 0
-43 57 30 0
-69 -12 -8 0
52 25 50 0
2 10 8 0
-35 -15 -7 0
-45 67 -21 0
-46 62 66 0
-61 42 -8 0
-33 58 59 0
-57 6 24 0
-31 -60 43 0
22 -41 39 0
-12 7 -55 0
-33 36 66 0
-35 50 14 0
-33 42 -69 0
-62 -18 -39 0
20 -24 54 0
-16 -70 65 0
53 58 42 0
66 -67 65 0
-16 38 -69 0
-61 -50 33 0
-60 16 7 0
-41 27 3 0
64 -6 1 0
3 40 21 0
-69 70 -31 0
-54 6 8 0
27 -35 63 0
-62 12 24 0
34 18 -64 0
