p cnf 70 310
50 -7 -42 0
-2 -21 -39 0
-63 45 34 0
49 35 -55 0
59 -4 -58 0
-38 34 13 0
42 -58 65 0
-41 10 -54 0
-48 70 -7 0
-26 24 22 0
-9 -23 -56 0
36 -70 -37 0
41 -39 -17 0
25 6 3 0
5 24 -57 0
-57 -42 -37 0
42 16 33 0
67 11 -52 0
-37 -58 68 0
65 16 18 0
66 37 -51 0
-16 -33 -6 0
68 -5 64 0
-42 23 -8 0
55 47 -28 0
28 52 30 0
-5 45 27 0
45 55 46 0
70 64 -58 0
51 -35 38 0
63 -37 28 0
-33 67 -5 0
21 -58 -57 0
26 -13 38 0
-48 59 19 0
43 22 36 0
-11 18 -41 0
-61 -30 2 0
53 -52 -70 0
10 -67 61 0
17 70 -62 0
-52 62 -22 0
30 2 -49 0
-31 -27 -58 0
60 -30 54 0
-36 -65 -52 0
18 64 65 0
-14 -51 42 0
19 34 37 0
1 -47 20 0
-56 37 43 0
10 -60 -50 0
-2 -40 -28 0
-64 -28 44 0
-9 -57 56 0
60 -41 -70 0
-6 -5 -30 0
25 51 -3 0
-3 -4 -64 0
-67 58 -66 0
42 20 -32 0
8 52 -56 0
-33 27 6 0
20 69 -34 0
48 31 -39 0
24 -54 25 0
-48 -2 62 0
61 39 -54 0
38 66 8 0
-9 32 56 0
4 14 39 0
-46 -49 2 0
37 50 -33 0
-63 56 11 0
-51 -8 27 0
-17 -59 2 0
39 -45 -59 0
9 13 -29 0
-14 55 -10 0
15 34 -49 0
19 -41 14 0
-67 32 60 0
-32 30 62 0
3 18 7 0
-65 -3 51 0
-14 -39 -58 0
-8 -60 -37 0
-36 68 57 0
-47 19 -13 0
-56 -55 -50 0
-37 -41 -36 0
-24 21 -38 0
30 -49 -5 0
-26 -64 29 0
42 69 -67 0
-45 6 16 0
-30 -39 -2 0
55 27 -24 0
19 11 56 0
9 59 2 0
-57 -7 14 0
41 67 54 0
54 -55 -53 0
-29 2 48 0
56 -50 -17 0
25 -12 -40 0
-36 22 65 0
-14 -39 -67 0
11 21 57 0
53 21 10 0
-22 60 -50 0
6 31 -64 0
-55 -64 -21 0
11 58 59 0
-50 62 44 0
-3 69 -52 0
-29 38 4 0
26 -19 48 0
50 49 -4 0
26 -20 42 0
-8 -57 16 0
52 -14 45 0
61 -68 42 0
40 43 25 0
26 -68 56 0
40 58 -27 0
-44 10 -64 0
-36 28 25 0
-60 3 2 0
-59 -32 63 0
55 27 -68 0
-54 56 66 0
57 61 -41 0
-48 15 -61 0
36 68 -7 0
-38 -16 55 0
24 45 43 0
-46 2 47 0
-38 -48 69 0
5 -70 -12 0
-18 15 19 0
-68 -4 -62 0
3 -50 -67 0
59 58 38 0
36 47 -32 0
-25 -61 -19 0
-68 62 -30 0
-17 60 47 0
50 -36 43 0
1 -7 10 0
-9 -16 57 0
20 54 -69 0
35 -14 37 0
-66 -25 47 0
-58 3 -11 0
-41 19 46 0
-26 8 -47 0
-58 12 2 0
-42 -28 -69 0
-68 -39 -36 0
-21 -70 -44 0
43 -23 45 0
59 -5 -3 0
68 -65 31 0
-67 -50 -28 0
-67 -23 -36 0
-25 -2 39 0
19 -3 52 0
-43 -21 -6 0
-39 -41 49 0
38 21 54 0
58 -53 -28 0
-35 -61 22 0
46 -26 -19 0
67 45 66 0
58 -66 56 0
41 59 57 0
-53 -11 -55 0
-57 -30 60 0
-8 -44 -2 0
-25 -56 45 0
50 49 -1 0
-42 11 15 0
-14 -46 25 0
54 6 -26 0
-66 -62 -14 0
63 -59 14 0
-18 -15 -61 0
-46 65 29 0
21 -5 -38 0
63 50 -49 0
11 60 -49 0
-30 -4 -20 0
-61 -43 36 0
-43 4 -67 0
-68 -42 22 0
-6 24 -66 0
-69 -51 -24 0
-41 9 57 0
64 12 40 0
-23 -46 53 0
-19 26 60 0
-36 16 15 0
-58 28 66 0
47 -17 -5 0
-63 -40 -17 0
-2 -41 50 0
5 69 -8 0
-19 4 -62 0
-60 -25 44 0
-41 24 14 0
26 64 -42 0
38 26 31 0
30 -16 -46 0
63 24 -43 0
-17 -51 18 0
68 -65 5 0
24 67 -52 0
17 70 56 0
-39 -29 54 0
54 17 -15 0
-25 -8 -59 0
-27 69 64 0
-17 62 5 0
-18 -55 -70 0
-19 -3 69 0
7 8 47 0
40 -70 -5 0
57 65 50 0
44 27 19 0
-35 -53 -45 0
-59 -69 -34 0
50 -6 -68 0
10 -9 -20 0
3 67 -2 0
-18 40 -53 0
3 -56 -29 0
-63 29 26 0
43 -22 -27 0
-20 53 68 0
-49 15 25 0
-21 18 -33 0
64 -63 -40 0
54 69 51 0
4 -44 -13 0
-31 -1 61 0
-49 26 -16 0
-49 7 16 0
-63 50 -33 0
6 -62 49 0
22 -2 1 0
15 21 -22 0
3 -13 43 0
14 -22 -25 0
-2 -39 -23 0
55 -13 36 0
-32 -52 68 0
24 8 -45 0
6 64 -22 0
70 -69 59 0
58 -69 21 0
41 11 -10 0
29 -55 32 0
-31 1 14 0
-22 -44 25 0
-37 23 28 0
-17 38 -51 0
43 -45 24 0
-53 59 48 0
-2 29 -1 0
70 -12 30 0
-5 20 41 0
-62 43 -7 0
29 -47 -8 0
-10 -32 -55 0
49 50 -23 0
-22 67 -44 0
64 -28 -65 0
4 40 -28 0
42 -26 -5 0
42 64 53 0
53 34 -36 0
-22 -45 -17 0
33 31 -64 0
33 -9 -4 0
-6 55 38 0
1 49 37 0
-1 23 -47 0
12 -52 25 0
34 36 25 0
-7 -28 -32 0
-8 18 40 0
63 -2 41 0
-20 -57 54 0
21 29 -28 0
54 1 51 0
-52 44 36 0
-58 10 65 0
10 37 -13 0
39 46 -53 0
19 -32 23 0
-41 -23 44 0
20 7 28 0
-24 44 -50 0
-1 31 -34 0
-56 53 -38 0
24 -1 31 0
15 64 -2 0
23 -58 3 0
7 38 52 0
