p cnf 70 280
21 38 9 0
29 17 -10 0
-41 63 -29 0
36 66 -14 0
15 -58 -3 0
39 69 43 0
34 31 13 0
4 43 37 0
-27 -16 29 0
59 -70 2 0
-30 -67 -45 0
-15 24 31 0
-30 38 -28 0
-18 -43 23 0
35 31 -49 0
-44 -37 -48 0
19 51 -41 0
38 16 -34 0
28 44 -15 0
66 -35 -59 0
-66 14 43 0
11 -8 69 0
58 -24 57 0
-23 5 29 0
-62 -11 59 0
10 2 -42 0
-57 -1 -70 0
-68 21 -54 0
-44 -25 57 0
33 50 63 0
-23 -63 37 0
28 39 -44 0
-14 -9 -69 0
-35 46 28 0
10 56 -28 0
20 -18 -63 0
68 -61 19 0
-58 -35 -50 0
-48 -66 61 0
-51 40 20 0
66 23 -43 0
34 63 -18 0
-46 22 50 0
68 53 12 0
54 -64 -1 0
-3 25 7 0
44 40 50 0
6 70 -37 0
69 34 -18 0
56 18 -28 0
-43 -41 16 0
37 -42 23 0
49 50 -70 0
-24 16 54 0
45 -13 -54 0
-44 58 16 0
39 40 46 0
-23 53 -59 0
16 -29 -23 0
25 5 -2 0
26 69 6 0
5 13 56 0
-11 -52 24 0
-28 -62 -10 0
9 52 68 0
14 -6 -68 0
44 -28 8 0
5 -47 2 0
-30 70 -63 0
-17 38 -8 0
55 -31 -51 0
25 -26 7 0
42 21 -70 0
51 -24 41 0
-23 63 -11 0
-37 -9 -36 0
-50 61 -15 0
35 49 -18 0
63 33 -62 0
-59 -31 60 0
-10 -55 -14 0
-38 26 -14 0
-69 -18 7 0
5 65 2 0
15 61 32 0
-43 -69 -60 0
-16 -57 63 0
6 -64 -40 0
-31 36 59 0
60 50 -37 0
18 52 -63 0
-29 -62 -11 0
32 -42 50 0
36 57 -68 0
-33 63 44 0
11 -44 29 0
-32 -56 -50 0
15 45 1 0
55 -54 28 0
-53 15 27 0
-40 62 61 0
-56 48 -36 0
55 47 51 0
22 -26 52 0
-5 11 52 0
-27 31 -3 0
-7 -17 -32 0
-4 -13 14 0
53 41 -67 0
-19 6 69 0
-29 45 4 0
48 8 21 0
-23 -62 -36 0
41 -62 -23 0
-2 58 -64 0
49 -32 64 0
-49 -57 -8 0
22 -17 18 0
-34 -17 27 0
32 12 -40 0
-52 -59 63 0
-67 50 -8 0
18 -8 -48 0
-29 -38 -27 0
-68 54 39 0
-50 -63 -26 0
-54 36 -17 0
1 -62 -34 0
28 55 41 0
15 4 -16 0
19 15 35 0
34 52 26 0
45 -21 -36 0
-65 51 -13 0
-46 26 -58 0
26 12 40 0
-1 -9 -65 0
-55 -25 -60 0
-26 -16 -70 0
4 24 67 0
-60 57 -31 0
-20 -60 1 0
-17 -66 -9 0
-21 47 -60 0
44 -34 -59 0
-51 -37 -10 0
64 -55 -19 0
-54 -43 -33 0
-10 31 68 0
8 -1 -25 0
68 -62 27 0
-18 -48 49 0
-49 22 -46 0
18 -69 -50 0
-40 16 -65 0
-29 -70 12 0
10 9 49 0
36 -9 -15 0
-55 19 61 0
-14 62 16 0
-18 53 -60 0
57 60 52 0
49 61 69 0
-50 51 -56 0
51 -49 11 0
-48 -58 1 0
-50 -5 -69 0
60 -70 37 0
-17 13 69 0
-61 63 -18 0
-46 -25 58 0
-66 -49 -69 0
37 -47 -50 0
35 42 -19 0
5 -36 -1 0
11 47 56 0
-35 11 6 0
-12 39 48 0
10 1 -69 0
-35 -18 -29 0
67 1 43 0
50 -42 11 0
33 -4 6 0
63 65 4 0
59 -44 -26 0
35 -5 -47 0
9 -7 16 0
-38 -61 -22 0
38 67 25 0
67 38 11 0
-48 -36 45 0
-28 -51 -68 0
-2 -40 -24 0
14 64 55 0
50 48 -55 0
-57 -5 9 0
33 13 -59 0
-29 -9 6 0
-32 -49 42 0
21 -70 22 0
58 37 -30 0
-17 -22 -15 0
70 -41 26 0
-35 46 34 0
8 21 -53 0
50 6 26 0
69 16 -21 0
-1 -64 -48 0
-12 -49 58 0
-38 18 -11 0
-11 62 10 0
-19 -47 15 0
34 -63 69 0
-20 -41 -24 0
-13 -22 -37 0
-27 -29 -45 0
11 1 54 0
-5 14 3 0
-46 -34 -13 0
48 27 -54 0
52 16 -70 0
50 -49 30 0
-10 3 -55 0
-61 3 -54 0
-65 70 10 0
-19 16 -20 0
40 -21 -70 0
-34 -70 -23 0
-4 -63 -68 0
-30 64 -33 0
42 6 41 0
10 11 70 0
-67 5 -6 0
-68 45 19 0
6 -51 -41 0
-15 50 -58 0
49 -43 -41 0
-27 48 -51 0
31 -46 6 0
-36 -48 58 0
-17 -49 34 0
-27 -4 -21 0
-56 -13 -15 0
26 3 -49 0
43 -42 -68 0
58 30 27 0
-56 -44 45 0
23 -68 40 0
5 1 -16 0
67 58 -9 0
-1 -16 35 0
-15 31 62 0
-26 35 -10 0
-55 52 -58 0
-59 38 -16 0
-67 -38 16 0
4 -13 -14 0
-50 42 -65 0
16 18 -63 0
-53 -25 19 0
-23 68 -20 0
-58 -50 -47 0
45 64 -51 0
-59 4 22 0
-60 -5 58 0
2 -34 -26 0
25 -52 -40 0
-67 -65 49 0
-32 7 -67 0
4 27 38 0
70 37 50 0
4 -13 -34 0
-33 -41 -27 0
-47 62 7 0
-22 -4 5 0
34 -68 -52 0
5 -11 -61 0
-13 48 -26 0
-43 30 -11 0
-31 -34 -9 0
