p cnf 70 270
50 58 67 0
65 3 61 0
60 10 -9 0
-57 11 60 0
40 -36 -48 0
68 -65 -17 0
70 -8 18 0
59 28 27 0
-2 38 3 0
30 -47 -20 0
-41 33 18 0
-31 53 -30 0
61 68 27 0
-40 30 2 0
-46 64 -23 0
-34 62 -45 0
54 68 -28 0
-17 -36 -13 0
67 11 17 0
-50 -68 38 0
-9 25 -60 0
-63 20 -12 0
-62 47 21 0
-43 18 50 0
-26 49 12 0
3 -9 34 0
62 -12 -42 0
-70 -7 -34 0
-8 44 -13 0
-12 -58 -15 0
-47 -30 55 0
36 -52 32 0
-5 -25 14 0
5 39 -61 0
-49 43 -32 0
45 -66 54 0
-35 67 30 0
2 21 -20 0
38 49 66 0
5 31 -58 0
-40 25 9 0
-68 -4 -9 0
-64 -7 -57 0
41 -70 5 0
-67 -28 46 0
59 38 30 0
31 -25 47 0
-1 -54 25 0
-43 -16 23 0
-5 -25 11 0
-22 26 -10 0
-40 35 69 0
-51 56 57 0
27 10 69 0
-47 -11 2 0
-23 5 50 0
45 -70 18 0
6 -66 -17 0
-43 -54 -8 0
31 44 25 0
-25 -16 -69 0
47 -21 64 0
21 -30 -42 0
-64 -18 -50 0
-20 61 5 0
30 -66 -36 0
23 40 -32 0
14 -54 17 0
56 55 26 0
38 50 -24 0
28 -57 25 0
-61 -47 70 0
-31 33 62 0
49 1 15 0
-6 -23 -46 0
-30 2 51 0
11 -27 4 0
-32 -56 19 0
42 -39 13 0
-49 -34 -59 0
58 33 17 0
31 32 34 0
-42 -62 39 0
-11 67 -62 0
45 -16 -1 0
3 -17 1 0
53 -43 -29 0
-3 29 -43 0
38 -50 -59 0
-40 32 -10 0
-54 -5 -44 0
-23 -6 20 0
-36 18 23 0
49 4 -27 0
61 47 7 0
39 30 17 0
-7 -62 -8 0
53 9 64 0
60 28 -68 0
-16 -58 -12 0
22 -49 69 0
49 -54 -31 0
56 48 -52 0
-9 -21 -70 0
-36 -66 69 0
32 -38 -28 0
64 -21 3 0
50 -32 -44 0
-39 -51 11 0
-39 3 -60 0
51 22 69 0
-66 -16 -50 0
-21 16 -59 0
-10 -62 21 0
11 -55 12 0
-18 3 -39 0
-4 46 14 0
24 3 32 0
53 33 -5 0
-70 -23 44 0
-29 58 -44 0
-21 -39 -26 0
59 -7 -48 0
-19 11 -14 0
-68 -43 -25 0
64 8 -14 0
49 -16 32 0
66 -22 -17 0
21 35 36 0
52 9 -13 0
49 66 -42 0
-9 48 -23 0
45 -60 -65 0
-11 -5 47 0
-34 57 -38 0
23 -42 -49 0
4 -12 -69 0
-44 25 68 0
2 -33 42 0
-50 15 -10 0
56 29 8 0
17 -42 68 0
-41 5 6 0
61 -37 -44 0
65 -10 42 0
27 -4 -59 0
-69 -6 50 0
37 68 -22 0
21 52 -3 0
32 -47 -18 0
21 -51 -65 0
24 26 14 0
50 70 -20 0
-26 21 62 0
-63 31 40 0
-23 -54 -14 0
-32 -28 -45 0
23 15 44 0
63 -43 55 0
-20 3 -11 0
58 22 27 0
53 35 59 0
-26 62 65 0
18 -44 32 0
59 60 21 0
-28 -47 -51 0
56 70 -14 0
1 17 -25 0
37 -31 -19 0
-59 49 -2 0
23 21 54 0
-50 51 -36 0
18 -13 1 0
-50 52 -2 0
22 61 -52 0
-24 -11 -7 0
54 70 -42 0
-32 -57 36 0
-29 26 -69 0
-55 -58 60 0
-6 2 -43 0
39 14 52 0
-27 9 48 0
67 51 37 0
44 56 -9 0
-15 -45 22 0
-16 11 36 0
-33 -47 -42 0
50 -22 59 0
6 29 -64 0
-61 -47 38 0
21 -26 38 0
-63 -13 -60 0
-21 50 -17 0
-44 -21 -25 0
61 59 -49 0
-29 44 24 0
-14 -4 -19 0
-35 -41 24 0
-60 59 -64 0
-16 -52 -7 0
17 48 -3 0
5 -67 -65 0
53 -23 59 0
-69 -35 51 0
35 62 -17 0
-70 -50 -29 0
30 47 34 0
-30 -63 -29 0
-50 -42 -23 0
47 -51 -13 0
47 60 45 0
36 29 -13 0
19 -58 43 0
13 -57 -23 0
35 18 -54 0
51 16 48 0
-22 5 -17 0
18 -20 49 0
-42 -25 -8 0
48 58 -59 0
-28 -38 -12 0
-50 35 -7 0
-13 -23 38 0
-10 -67 -60 0
-61 -37 21 0
25 -28 16 0
17 70 -16 0
-13 -39 29 0
61 20 -35 0
-43 3 -69 0
23 -5 -49 0
-35 -21 -43 0
-35 60 15 0
17 -61 -12 0
-25 62 11 0
70 59 -7 0
-20 -40 59 0
21 12 -11 0
-15 62 -18 0
-15 38 18 0
-46 24 -67 0
10 -14 -26 0
65 20 -70 0
49 37 -24 0
-14 48 -47 0
67 -7 49 0
36 -60 28 0
46 -69 -38 0
-70 -66 -49 0
67 57 -25 0
4 68 70 0
-27 -47 32 0
7 -23 1 0
9 66 52 0
-44 35 -61 0
-40 57 -52 0
17 -29 24 0
-54 35 11 0
9 53 -30 0
-32 -56 -7 0
18 -33 2 0
-12 66 32 0
-1 -65 -26 0
-49 24 -12 0
18 -62 67 0
37 39 14 0
13 63 7 0
-1 -20 -46 0
-18 49 -69 0
