p cnf 70 295
-38 46 -55 0
-47 13 61 0
65 48 42 0
46 6 -10 0
-16 -45 -55 0
-30 -5 23 0
12 18 49 0
40 45 -60 0
-37 19 -14 0
44 -61 -7 0
22 52 -20 0
46 -63 17 0
-2 -15 -14 0
-68 -38 -34 0
-61 8 56 0
48 1 60 0
40 7 69 0
46 25 -36 0
4 -43 53 0
-62 4 -40 0
18 44 -2 0
-26 14 51 0
-40 -21 2 0
30 35 20 0
-36 -62 52 0
32 -23 35 0
-65 -46 -21 0
10 -61 25 0
-46 -6 -40 0
67 41 -70 0
26 45 -31 0
30 -53 -36 0
33 35 24 0
67 11 54 0
-23 37 -38 0
70 -12 50 0
10 27 21 0
-56 -61 10 0
32 -26 14 0
29 33 -67 0
25 6 35 0
-30 24 -31 0
42 19 -26 0
-69 -43 17 0
-13 33 64 0
20 65 -64 0
12 55 -26 0
-49 12 -60 0
70 69 62 0
-50 -7 -46 0
61 48 22 0
7 42 -23 0
3 -31 -58 0
-8 -45 16 0
15 -6 -70 0
31 24 50 0
-13 -33 -37 0
41 -49 45 0
16 -31 -39 0
43 45 -65 0
22 -1 -42 0
-50 51 43 0
60 27 67 0
-38 11 27 0
17 70 -4 0
-25 58 -62 0
-45 61 9 0
9 5 -3 0
17 -56 3 0
-26 -38 31 0
-35 21 -36 0
-47 59 -51 0
53 39 66 0
-33 53 28 0
-16 -60 25 0
-6 -49 -56 0
-12 52 -32 0
59 68 -41 0
16 60 -54 0
15 40 -34 0
-38 -29 9 0
22 -11 -15 0
61 -42 -68 0
-19 50 -69 0
-52 -63 62 0
34 -7 5 0
43 22 -7 0
-50 -26 52 0
62 -49 -8 0
61 50 49 0
38 -50 -44 0
57 -32 -4 0
-43 -70 -48 0
47 -6 -4 0
-34 15 58 0
34 41 56 0
58 -28 -4 0
-12 70 -40 0
-20 -62 50 0
69 -52 -22 0
-66 65 67 0
7 -47 -5 0
-41 -53 26 0
-27 59 -61 0
7 -30 -54 0
-41 68 20 0
52 -10 -22 0
-63 -66 -3 0
-45 7 -14 0
-15 55 -7 0
50 -13 -62 0
31 -7 40 0
45 16 -65 0
29 -56 -62 0
11 -8 -62 0
67 -36 18 0
-18 45 40 0
-62 -18 14 0
-59 18 56 0
-11 44 5 0
48 26 55 0
-54 25 -70 0
-13 -30 59 0
39 -69 -19 0
-29 14 -6 0
-70 23 37 0
-28 62 54 0
33 47 44 0
-19 -26 41 0
15 68 -11 0
57 54 6 0
44 -25 47 0
29 -60 57 0
57 -50 56 0
51 -66 -3 0
13 52 -70 0
43 70 -26 0
31 8 -44 0
3 9 -27 0
12 43 -41 0
34 -70 14 0
-32 64 -4 0
-18 -49 62 0
-63 -48 29 0
3 7 -68 0
-64 52 33 0
2 3 -45 0
3 10 9 0
-14 -64 11 0
-52 58 10 0
-67 -19 4 0
65 -18 -60 0
20 67 -31 0
70 -27 -59 0
44 -57 60 0
-62 -21 -35 0
60 -40 13 0
-29 -15 -63 0
-64 9 -49 0
-60 31 40 0
20 -10 -5 0
-36 43 51 0
27 38 2 0
-34 -66 40 0
54 42 57 0
54 -33 -13 0
-26 19 -23 0
-9 43 37 0
63 48 -9 0
1 5 -43 0
-39 26 15 0
70 37 -48 0
65 42 -17 0
-3 5 52 0
68 -17 -45 0
-39 -34 44 0
-34 -50 -12 0
12 21 -62 0
15 52 10 0
67 -52 44 0
55 -44 -66 0
1 2 -54 0
-47 35 60 0
-7 -50 55 0
42 -32 62 0
-16 32 31 0
-15 -22 32 0
-53 -36 34 0
35 -63 26 0
34 32 22 0
-43 -38 -21 0
52 -31 -29 0
-17 59 30 0
-14 -61 70 0
43 53 -11 0
37 26 -45 0
-15 61 22 0
30 57 -58 0
-44 -55 -26 0
-36 -66 -4 0
-16 12 25 0
-23 -21 -10 0
9 -33 -8 0
-17 -50 29 0
-3 -53 10 0
20 41 37 0
60 24 -70 0
37 16 18 0
-60 -5 -7 0
-70 -56 35 0
7 -33 -3 0
8 -9 21 0
-51 17 63 0
3 -16 -60 0
11 -21 26 0
61 9 -17 0
-60 20 -64 0
-19 -42 12 0
-3 44 51 0
-31 54 52 0
26 3 62 0
2 11 15 0
63 -59 -64 0
32 39 -60 0
38 -22 34 0
54 36 28 0
-49 63 30 0
-63 -9 32 0
-9 10 39 0
-27 -30 59 0
-33 -42 -31 0
-2 32 -50 0
-4 -29 49 0
-50 -13 30 0
-53 -57 18 0
-26 -30 -1 0
-49 -48 -9 0
29 -44 70 0
55 43 67 0
-46 40 2 0
-54 -30 31 0
6 42 65 0
59 -14 27 0
3 -25 -39 0
47 37 48 0
13 -20 -16 0
-62 49 57 0
-56 -3 41 0
-55 69 -16 0
27 57 -50 0
-19 25 41 0
40 19 60 0
-18 11 -1 0
46 -8 -48 0
-12 -17 66 0
-25 42 -68 0
25 22 -45 0
-63 -61 -29 0
50 44 -63 0
-66 4 -32 0
-42 24 -23 0
-64 -20 32 0
-60 53 37 0
47 -63 4 0
69 -55 -33 0
36 -6 25 0
51 10 28 0
-2 -13 12 0
-20 8 -26 0
-35 -9 24 0
37 -43 -68 0
-7 21 -29 0
14 42 20 0
19 -39 36 0
44 69 62 0
-19 -31 -14 0
32 31 -17 0
-35 -62 9 0
33 -3 -34 0
-47 32 -63 0
14 -25 46 0
38 65 33 0
62 41 12 0
61 -14 42 0
2 -66 -49 0
-44 -9 56 0
-29 -70 46 0
33 -63 52 0
16 -46 60 0
55 25 -11 0
-51 19 -38 0
38 -8 13 0
-27 50 -31 0
49 17 6 0
33 14 50 0
