p cnf 70 270
15 29 -70 0
8 -63 -46 0
-34 -45 -52 0
-44 -35 -11 0
21 23 -8 0
68 52 -36 0
-19 70 12 0
49 -28 40 0
70 -26 61 0
-18 24 -67 0
64 14 -10 0
-47 -70 -13 0
15 -49 14 0
10 -61 -59 0
22 -24 -55 0
67 70 27 0
-61 54 66 0
69 -57 50 0
-54 -28 38 0
-67 -9 44 0
-10 20 28 0
24 41 -56 0
63 5 -37 0
-46 -42 26 0
15 -30 -62 0
18 1 16 0
-40 -28 -60 0
17 70 55 0
-10 29 31 0
35 -62 6 0
28 48 -14 0
-13 -20 -69 0
-20 -46 38 0
-15 -37 36 0
3 -46 -30 0
68 51 8 0
-13 -37 -28 0
-5 -24 50 0
13 22 38 0
-61 -60 9 0
55 -48 69 0
33 38 40 0
36 -50 7 0
32 -49 61 0
-56 -10 -35 0
-9 -44 68 0
26 19 69 0
27 -28 46 0
-13 66 -60 0
30 -32 -31 0
-27 50 -57 0
69 65 -1 0
-61 11 15 0
36 5 -46 0
-45 39 -67 0
11 -28 -47 0
29 -45 53 0
67 -43 49 0
-33 -1 69 0
4 17 10 0
59 24 31 0
47 -22 -59 0
29 -62 -11 0
-46 5 12 0
9 -47 -62 0
-2 26 60 0
-51 34 42 0
20 50 -4 0
66 45 27 0
70 16 -30 0
-65 53 -36 0
-15 -26 10 0
-28 -42 70 0
-69 39 -56 0
30 37 -50 0
27 -37 59 0
16 -17 -46 0
-62 42 26 0
52 32 -14 0
-48 50 45 0
21 -10 36 0
20 67 -3 0
-10 16 66 0
-64 35 17 0
15 56 -51 0
-26 68 -62 0
70 -44 6 0
21 -30 6 0
43 -19 -64 0
-50 17 -7 0
12 -15 63 0
46 11 -70 0
68 47 -32 0
27 10 33 0
-62 48 -1 0
30 53 -70 0
-50 -35 22 0
50 57 -46 0
-65 50 14 0
34 -4 57 0
68 29 54 0
45 44 59 0
52 -57 9 0
-23 44 68 0
65 14 21 0
52 -51 -30 0
-38 2 -63 0
-13 29 -21 0
66 38 -9 0
-15 27 -68 0
52 -45 16 0
-3 29 47 0
67 38 -42 0
-29 57 -46 0
-18 -64 -56 0
-24 38 39 0
-10 -40 58 0
32 25 9 0
-27 -10 28 0
-17 -61 -38 0
-49 -61 -18 0
21 -31 -6 0
4 40 23 0
-37 60 -58 0
-48 -44 -61 0
57 -41 38 0
55 31 4 0
-12 -3 -65 0
-13 67 22 0
12 -43 26 0
-42 -64 55 0
-46 -10 32 0
-43 -11 -4 0
-62 -67 -18 0
43 -69 36 0
21 -44 -41 0
23 11 47 0
20 -18 -65 0
-34 56 -51 0
28 -6 56 0
48 -56 -28 0
43 -64 -46 0
-29 16 61 0
-4 64 -41 0
11 -9 -4 0
-33 2 69 0
-41 -65 60 0
-6 47 12 0
43 -51 -12 0
-15 49 53 0
-24 47 -55 0
-16 -28 -8 0
15 -41 -49 0
-14 -62 44 0
46 59 -34 0
44 9 40 0
26 20 -36 0
66 12 35 0
-47 36 37 0
-18 -4 31 0
70 8 -6 0
-6 36 -39 0
-4 17 37 0
22 18 31 0
2 -36 61 0
70 26 -18 0
41 63 -5 0
45 41 70 0
-6 -43 14 0
3 18 -25 0
-44 4 -42 0
63 16 57 0
-50 67 21 0
-46 -18 -21 0
-19 -38 34 0
25 -53 -56 0
-38 -14 -15 0
-9 33 -20 0
66 -21 5 0
-27 50 -38 0
7 57 -30 0
24 10 27 0
55 61 67 0
69 -38 -1 0
-13 12 -6 0
-30 28 -26 0
69 31 -50 0
63 -32 -44 0
33 36 56 0
-1 59 20 0
21 66 -38 0
6 -66 62 0
-31 58 16 0
51 -63 5 0
-14 31 -47 0
-19 -3 10 0
30 66 -27 0
50 -57 -7 0
-34 30 -4 0
21 -2 -6 0
-7 20 15 0
54 25 -21 0
24 -38 18 0
-2 -15 -55 0
-14 -8 66 0
-14 -30 33 0
9 -34 -70 0
41 -24 39 0
-42 31 11 0
17 22 -1 0
-5 -66 -27 0
-46 1 16 0
-30 45 -1 0
12 -30 -35 0
62 -11 -23 0
17 -39 -62 0
3 -63 54 0
42 4 56 0
38 56 57 0
-26 70 33 0
29 -5 7 0
14 -50 -46 0
13 -69 12 0
34 -18 11 0
52 -15 67 0
64 -11 16 0
-36 -11 63 0
-9 21 67 0
-69 65 -41 0
-37 -30 44 0
-57 44 26 0
51 -25 -23 0
-38 19 6 0
4 -57 -65 0
-30 -63 -66 0
-2 18 23 0
26 23 63 0
-49 17 -40 0
17 -69 2 0
-41 12 53 0
-13 -69 3 0
-9 15 43 0
31 -62 3 0
-13 -28 30 0
21 -54 -9 0
-45 9 6 0
35 48 -20 0
65 -20 23 0
46 29 36 0
61 17 -67 0
51 28 -63 0
4 3 41 0
-18 68 10 0
39 64 -13 0
66 -14 5 0
18 -5 54 0
33 26 -42 0
24 -35 26 0
36 4 -13 0
59 -20 -8 0
-57 58 -41 0
45 44 10 0
-67 4 -12 0
-5 12 -3 0
59 67 -41 0
-33 28 55 0
58 -64 -25 0
57 -33 25 0
55 -58 15 0
-17 6 -58 0
