p cnf 70 285
49 23 39 0
-17 42 -12 0
-20 -4 21 0
42 59 -26 0
30 -31 -17 0
-42 30 1 0
43 -51 -30 0
18 -36 -55 0
69 4 -52 0
-55 49 10 0
40 -56 39 0
-5 -54 -21 0
-67 48 -19 0
-25 -34 -45 0
8 -32 -4 0
-20 -3 19 0
68 18 7 0
54 -14 69 0
61 54 56 0
27 -38 5 0
59 3 45 0
34 54 10 0
-5 -20 -45 0
50 31 -17 0
-15 -59 47 0
-56 67 -34 0
24 2 67 0
-7 -4 -36 0
33 47 62 0
32 -16 -37 0
-23 -24 -60 0
33 -3 -44 0
64 -2 -35 0
1 23 -11 0
57 -44 -23 0
43 -28 -32 0
66 -61 42 0
-15 4 -54 0
34 -59 60 0
-20 -35 -34 0
15 -17 23 0
-4 19 -33 0
-69 39 -3 0
-50 16 1 0
6 -60 65 0
-36 52 -55 0
-54 -55 50 0
60 -10 -44 0
55 -43 -15 0
35 16 15 0
44 -38 -64 0
24 56 41 0
-34 -15 70 0
12 -39 27 0
42 18 -66 0
-34 32 -49 0
-46 -57 37 0
-31 -59 30 0
8 -10 57 0
46 34 60 0
-5 -62 14 0
17 -23 27 0
-31 -8 -12 0
-14 -47 -24 0
-45 -20 60 0
-66 61 31 0
-47 62 26 0
59 -37 58 0
-48 -22 33 0
-39 -37 35 0
-34 -28 42 0
-28 -60 -11 0
31 -37 36 0
43 -52 56 0
-31 -48 -19 0
68 15 -38 0
6 -42 60 0
70 57 -58 0
-54 -12 -69 0
50 6 10 0
-25 2 -27 0
12 -59 2 0
-27 -67 51 0
36 16 -65 0
26 38 -19 0
-22 -36 -46 0
42 26 -46 0
16 52 -42 0
1 28 -52 0
-33 27 -62 0
-24 20 58 0
-43 40 4 0
22 1 15 0
41 8 34 0
63 69 -55 0
-18 -23 4 0
10 51 29 0
-1 25 -29 0
-37 29 28 0
59 44 -13 0
13 -60 22 0
62 -60 53 0
-22 66 55 0
-38 9 58 0
-55 -37 -45 0
-12 -26 -27 0
18 36 21 0
-19 -14 64 0
-65 70 -4 0
-58 49 13 0
65 -21 -62 0
17 25 -12 0
-1 7 -49 0
-8 35 -40 0
-4 37 -11 0
69 -23 -52 0
33 6 -38 0
37 41 20 0
44 56 -6 0
-47 -66 42 0
20 -54 -64 0
23 54 -36 0
-11 70 -31 0
-58 -27 -68 0
-14 -54 -22 0
55 63 52 0
-35 -24 52 0
19 -39 -59 0
-55 -33 1 0
-28 8 52 0
18 -53 1 0
-26 -61 18 0
-42 39 -4 0
23 -30 -65 0
49 -50 25 0
33 44 -64 0
54 64 -68 0
1 39 -4 0
-10 -43 15 0
52 -29 62 0
-60 -51 39 0
-45 69 21 0
29 35 -70 0
3 -58 -54 0
-34 -28 66 0
8 44 -37 0
12 -53 69 0
35 -17 42 0
22 43 -28 0
5 -59 -33 0
-14 66 -11 0
6 14 -35 0
24 -16 13 0
45 -28 39 0
-24 40 70 0
57 55 -6 0
32 -57 -22 0
57 -18 -28 0
-31 70 64 0
-42 -32 -44 0
-10 63 38 0
-35 60 -6 0
7 -55 -25 0
15 62 23 0
64 3 28 0
32 58 -66 0
-51 -41 -58 0
-34 -67 9 0
-66 57 -43 0
-18 -22 39 0
27 17 -19 0
60 -25 -61 0
9 34 26 0
-31 10 65 0
-8 49 36 0
68 -15 36 0
-24 -23 -65 0
57 -45 36 0
48 50 -61 0
31 35 46 0
-4 3 -67 0
-24 62 -1 0
70 -58 -68 0
-23 -15 -19 0
67 -43 -27 0
25 30 8 0
-68 -28 -33 0
68 -7 54 0
-10 60 -35 0
-3 17 -69 0
70 -7 -39 0
36 -19 46 0
34 -24 47 0
-40 -33 -39 0
-62 1 -48 0
69 -30 -40 0
23 -7 69 0
-17 38 31 0
32 -23 46 0
-17 67 -68 0
23 29 -46 0
-2 39 -55 0
-64 -18 8 0
63 37 15 0
-70 64 43 0
-64 -10 62 0
-1 -65 -16 0
33 -6 -61 0
-8 -67 -5 0
-9 32 -11 0
-55 11 52 0
-69 -32 -46 0
64 65 69 0
30 23 -17 0
-23 -46 17 0
-38 -60 -10 0
69 -68 57 0
-45 63 53 0
-6 51 19 0
-7 -68 -48 0
-35 -16 -26 0
-59 61 -1 0
10 -13 -5 0
62 65 37 0
-41 50 -11 0
27 -20 17 0
-1 4 -40 0
51 -40 -20 0
68 -48 16 0
51 63 -48 0
-41 -39 2 0
-36 -33 -69 0
-35 -13 -9 0
-42 -11 67 0
6 65 -32 0
9 41 12 0
-45 39 -20 0
-5 -25 46 0
46 -31 -70 0
5 -59 7 0
69 34 -11 0
8 9 -4 0
-28 11 36 0
-47 22 -69 0
24 -49 -41 0
-54 32 55 0
-35 -41 -56 0
43 -45 19 0
5 12 29 0
69 -8 -28 0
-70 -47 5 0
-19 -49 -53 0
-5 14 13 0
-24 53 34 0
-66 -42 68 0
1 33 -36 0
50 -34 54 0
-27 -20 41 0
15 59 -30 0
-33 -39 28 0
-49 65 -66 0
28 -7 6 0
68 -17 -8 0
-43 20 18 0
-52 21 23 0
50 55 63 0
41 -43 45 0
-23 12 -69 0
51 -56 49 0
64 63 -23 0
38 10 51 0
42 46 4 0
8 32 33 0
-11 -27 29 0
46 33 58 0
-34 61 37 0
30 15 20 0
-2 -21 -30 0
10 -33 55 0
-69 -20 -36 0
32 8 -34 0
19 -63 -28 0
-41 -13 51 0
-63 30 25 0
53 9 58 0
