p cnf 70 280
55 -11 -64 0
-19 -54 63 0
50 63 -44 0
-52 -28 21 0
22 -21 -55 0
17 65 24 0
-5 -69 -9 0
-28 -32 49 0
-16 28 -31 0
-24 -48 6 0
-56 -40 -38 0
-7 67 -28 0
20 -45 1 0
66 31 61 0
38 25 64 0
10 -12 -61 0
-56 -48 -13 0
-57 -58 -29 0
43 -55 -63 0
-12 -53 -25 0
-53 7 25 0
-12 -58 16 0
-51 -5 18 0
-5 -47 49 0
48 13 5 0
-17 -3 -60 0
26 -22 -4 0
16 -53 13 0
11 -3 14 0
-15 -69 67 0
-42 -30 17 0
-14 70 32 0
-69 33 -8 0
29 58 61 0
47 -50 32 0
-62 -64 -15 0
4 -61 -32 0
-59 33 -4 0
27 46 14 0
2 45 -70 0
-32 27 42 0
-30 -34 58 0
54 -31 24 0
54 6 65 0
3 -36 26 0
-61 32 -39 0
67 -65 17 0
-21 -42 -17 0
-69 -62 18 0
-52 -49 -57 0
50 -59 27 0
46 24 5 0
33 40 -5 0
46 -45 -21 0
-68 51 -6 0
21 60 51 0
-26 -57 -66 0
52 -50 27 0
68 -26 -38 0
43 10 -64 0
-40 -23 -42 0
24 5 -31 0
41 -18 -36 0
12 68 -31 0
-60 -22 7 0
27 7 61 0
12 33 -51 0
-9 -26 14 0
11 44 32 0
11 5 -3 0
-32 43 -49 0
-13 -31 35 0
-57 25 -7 0
-70 20 21 0
10 -16 23 0
4 39 58 0
-54 -45 -62 0
39 6 -16 0
34 14 -53 0
-3 -31 -63 0
19 -43 -16 0
-50 -42 5 0
-32 12 -58 0
52 41 48 0
-20 -11 13 0
67 -64 -66 0
-59 -22 -35 0
-38 -63 -54 0
12 45 53 0
44 22 67 0
-63 -35 25 0
38 49 -11 0
43 -48 19 0
-56 12 33 0
6 -52 32 0
-2 69 9 0
-65 -21 12 0
-32 -31 61 0
-13 -39 49 0
29 -16 67 0
-68 -23 -13 0
-52 50 56 0
27 -22 -17 0
-49 -33 -24 0
-41 -20 23 0
7 -13 -24 0
-10 -13 31 0
-39 13 45 0
-65 44 -54 0
67 -29 -43 0
-22 63 69 0
-62 52 -60 0
-36 68 -65 0
-45 24 68 0
-29 -18 -23 0
17 -67 -19 0
-18 -4 -20 0
39 8 65 0
36 -39 -23 0
19 -58 -8 0
26 49 -47 0
-29 39 -30 0
64 -38 40 0
43 2 -50 0
-15 6 19 0
8 57 33 0
19 -44 55 0
-14 -21 6 0
-65 39 37 0
-1 -11 17 0
-15 -57 -38 0
-31 -27 2 0
-6 -70 -66 0
-68 26 -47 0
-6 -30 -14 0
-59 -33 -44 0
60 51 -12 0
32 -4 28 0
-53 -62 -17 0
7 -19 69 0
45 -29 -31 0
54 -60 26 0
-62 -61 54 0
51 47 -57 0
4 -40 -21 0
-19 -30 -10 0
49 11 -20 0
-17 4 -1 0
-52 21 14 0
-58 -1 8 0
-64 66 61 0
-29 62 54 0
-6 -16 -41 0
-67 47 12 0
-40 27 30 0
-66 28 -23 0
-51 -6 47 0
-48 -11 -49 0
-12 -60 35 0
-22 -23 8 0
1 -50 -26 0
-47 42 -17 0
-21 -52 29 0
-26 -62 -51 0
8 56 -44 0
-3 -51 -67 0
31 -9 -30 0
53 38 34 0
26 -12 49 0
-44 57 -29 0
10 42 21 0
-65 43 -48 0
-2 -45 -65 0
30 -5 66 0
-8 37 1 0
20 -24 12 0
-58 7 -62 0
66 -24 -31 0
53 2 32 0
-41 51 20 0
-24 60 3 0
-24 -51 40 0
-16 -12 22 0
33 -6 -62 0
-52 -62 -26 0
-38 -56 -26 0
-64 27 25 0
-48 -1 -7 0
1 53 66 0
-53 -16 70 0
-51 -25 -8 0
-67 63 43 0
37 3 -69 0
-12 38 69 0
17 6 -27 0
-60 -10 -47 0
-47 -20 19 0
-16 42 -59 0
-66 -24 68 0
-46 65 -9 0
-35 17 5 0
-58 -35 -49 0
12 -14 34 0
-59 -20 49 0
31 60 -21 0
-2 -57 -6 0
14 -57 4 0
-42 -3 63 0
-36 66 -62 0
-6 12 33 0
-28 -27 30 0
-34 -3 15 0
-56 -29 65 0
70 58 -45 0
47 30 26 0
-56 -55 3 0
-70 40 66 0
-23 -36 59 0
-1 -66 4 0
50 7 -1 0
-37 49 31 0
13 40 28 0
-59 29 -23 0
27 26 -60 0
57 41 -52 0
-64 58 24 0
-27 56 35 0
32 -1 18 0
-66 57 39 0
58 -25 44 0
70 3 -40 0
42 1 26 0
64 68 -47 0
25 17 59 0
-70 21 42 0
23 -20 30 0
-20 -14 9 0
54 -44 6 0
2 36 -66 0
17 -65 -57 0
-9 37 17 0
21 -51 -52 0
-61 48 23 0
57 -5 -49 0
55 15 -20 0
36 -10 51 0
-25 8 54 0
-29 -49 23 0
62 39 45 0
53 -43 68 0
10 58 -23 0
16 -64 48 0
-53 52 -11 0
-15 -54 -53 0
57 -23 16 0
-46 -55 3 0
62 -57 -25 0
55 9 -70 0
-14 3 64 0
45 -54 -37 0
64 -68 52 0
69 -40 -16 0
-54 57 49 0
-58 8 61 0
59 -31 33 0
-57 39 -40 0
12 -29 40 0
-35 67 20 0
-26 -14 9 0
4 38 -14 0
-52 59 -63 0
-4 37 3 0
62 -30 -17 0
-38 -48 11 0
25 -12 54 0
-61 4 40 0
29 56 47 0
15 -57 -14 0
-46 28 -12 0
7 26 17 0
