p cnf 70 300
-65 -2 24 0
54 -44 51 0
-59 -29 63 0
-41 -67 -23 0
16 44 65 0
-63 52 18 0
4 49 59 0
8 39 -37 0
24 42 -2 0
37 21 -1 0
-8 -9 -64 0
62 41 -7 0
-70 -9 47 0
-46 -38 -4 0
54 46 58 0
36 -13 -41 0
-70 -51 -33 0
23 45 -18 0
60 -40 -49 0
36 -41 -34 0
21 13 38 0
-6 -43 2 0
-46 -58 15 0
52 40 58 0
22 35 -54 0
17 33 -1 0
-53 -31 61 0
53 -55 13 0
-53 16 49 0
-12 -20 -14 0
-4 -11 42 0
-38 -40 57 0
-50 -69 33 0
32 51 55 0
31 5 -35 0
-40 -48 62 0
-47 -59 54 0
67 47 25 0
6 -64 53 0
-1 -39 -11 0
-62 30 28 0
26 -2 45 0
52 2 -39 0
-48 60 -54 0
48 -30 40 0
3 -44 60 0
62 55 -4 0
-25 60 -39 0
61 -42 26 0
14 57 63 0
-66 49 -47 0
-62 -36 -50 0
-61 41 58 0
47 33 36 0
-5 70 -62 0
68 38 17 0
-46 -58 62 0
-69 -22 41 0
-22 25 11 0
14 36 -63 0
14 65 68 0
14 -58 36 0
29 -24 -59 0
-35 -26 -43 0
52 9 -1 0
61 47 -58 0
-43 -25 9 0
68 9 -17 0
53 -16 -67 0
31 9 62 0
-33 -41 49 0
49 -20 -8 0
15 51 -58 0
-55 -65 6 0
-67 2 -32 0
-18 69 15 0
-24 46 65 0
4 11 60 0
33 -28 43 0
-14 48 -25 0
-7 -66 31 0
13 1 24 0
-23 -20 -35 0
69 58 9 0
48 -7 -34 0
59 -58 -45 0
8 -32 66 0
-66 47 15 0
-40 -1 -65 0
19 64 -20 0
10 6 25 0
9 -16 6 0
58 12 -49 0
56 69 -59 0
-10 61 22 0
-1 -7 -61 0
-20 60 -1 0
-40 -39 65 0
6 -7 -57 0
-44 8 -27 0
-5 -14 -15 0
-4 -23 -12 0
42 65 67 0
34 -68 27 0
-7 -21 5 0
68 28 -11 0
36 35 -26 0
24 -57 -49 0
39 -24 23 0
34 67 20 0
-9 68 40 0
-44 -46 -43 0
-2 26 19 0
-61 -29 -16 0
9 -24 53 0
24 -2 45 0
-45 -7 -31 0
43 -45 52 0
59 -3 -28 0
-65 61 -48 0
2 -54 -23 0
1 30 34 0
18 29 22 0
42 67 44 0
-53 -61 -14 0
-32 48 -39 0
46 -16 35 0
-26 27 55 0
-64 26 52 0
30 -51 -25 0
49 -43 -57 0
-17 -2 -14 0
33 19 -26 0
-46 44 47 0
15 -69 28 0
69 -29 -34 0
-59 -9 7 0
-42 43 3 0
48 65 63 0
10 25 -60 0
-54 -67 36 0
7 41 33 0
28 11 -33 0
-65 13 -20 0
-23 44 -18 0
-21 -68 12 0
-54 -39 7 0
-18 -20 43 0
31 13 1 0
-26 5 -55 0
59 -14 -7 0
1 63 -16 0
61 -23 51 0
-13 -66 62 0
49 -40 -13 0
41 27 -68 0
35 -5 -25 0
40 -12 54 0
-32 44 41 0
19 -1 -65 0
-56 50 66 0
-43 -40 -6 0
44 -68 -3 0
34 21 38 0
-15 6 -4 0
-36 63 -19 0
38 55 41 0
12 -3 29 0
-2 3 -28 0
37 -70 -2 0
70 29 -10 0
63 23 11 0
-35 -42 38 0
6 -27 -12 0
-7 -2 -63 0
-60 -63 8 0
63 25 8 0
-44 10 38 0
-17 6 52 0
-34 58 -62 0
21 -45 -57 0
-39 -48 20 0
7 -50 -56 0
17 -1 53 0
57 60 40 0
57 25 -53 0
19 -10 56 0
13 -62 -22 0
-44 -23 -64 0
58 8 11 0
64 -16 29 0
36 -62 37 0
-43 51 -48 0
-35 60 -57 0
-65 35 5 0
-34 66 18 0
-40 -36 -62 0
-17 -40 33 0
54 30 -40 0
-35 -43 44 0
13 -38 68 0
-69 -44 -36 0
49 -3 -69 0
-49 -46 -42 0
-6 -22 42 0
36 16 32 0
6 -7 46 0
56 -32 -31 0
-1 10 34 0
20 55 6 0
-28 69 -35 0
-51 -16 -21 0
-41 -64 -39 0
16 25 3 0
23 -54 -42 0
-15 54 -26 0
15 -37 68 0
-41 56 -36 0
40 39 63 0
63 25 -56 0
21 33 -49 0
-64 4 -63 0
28 5 67 0
14 43 3 0
-44 51 -46 0
34 -1 53 0
65 21 18 0
-15 -35 60 0
25 -44 -21 0
38 50 8 0
-39 -20 -11 0
39 -68 -57 0
-61 -5 11 0
5 -35 1 0
66 -62 33 0
-6 5 -19 0
25 68 42 0
-37 52 -69 0
-12 64 26 0
14 -35 -10 0
-6 52 -17 0
-33 -5 44 0
45 -5 -33 0
44 -48 -10 0
-42 25 -60 0
-67 30 -58 0
-16 47 28 0
-30 59 -36 0
-21 11 -39 0
-44 61 1 0
67 -15 -1 0
-4 -49 -51 0
-28 -67 26 0
69 -45 47 0
3 54 -18 0
-10 64 -39 0
30 15 17 0
-33 -36 -2 0
58 -47 59 0
-7 -31 -32 0
-59 -29 65 0
32 -53 50 0
-46 66 32 0
13 70 9 0
8 57 23 0
-46 43 18 0
6 60 40 0
31 1 -30 0
-66 51 -12 0
-24 -28 27 0
8 48 53 0
-24 -29 -38 0
-63 -15 -11 0
-62 17 -3 0
33 -49 5 0
-9 -12 26 0
35 11 -12 0
33 -24 64 0
-14 -8 -63 0
37 -47 30 0
-9 28 7 0
1 -53 -18 0
18 -2 63 0
40 62 -58 0
46 -56 55 0
-59 1 -65 0
22 25 45 0
42 19 -18 0
28 18 -27 0
-47 39 3 0
-19 -22 -66 0
68 7 29 0
37 -17 66 0
26 62 35 0
59 -68 -5 0
48 8 -53 0
63 -5 25 0
10 -50 14 0
-65 -25 -16 0
-44 14 64 0
