p cnf 70 280
53 41 -27 0
-58 11 52 0
34 -24 -54 0
-31 -43 60 0
-57 -5 -67 0
-61 -68 16 0
-70 19 26 0
-31 3 -51 0
-26 29 -3 0
63 54 41 0
32 10 14 0
-61 -48 4 0
60 -21 12 0
-12 52 18 0
-30 -25 -5 0
47 45 52 0
-56 69 26 0
43 51 2 0
40 23 -6 0
1 27 -62 0
-25 51 47 0
55 -22 56 0
-51 -5 52 0
60 -9 -10 0
26 -12 50 0
18 16 -8 0
10 58 -46 0
-50 42 -40 0
-59 29 -67 0
-6 -34 20 0
16 -33 44 0
51 54 -66 0
-13 9 -53 0
-36 30 -55 0
-13 -56 -14 0
-11 49 42 0
-19 3 45 0
-17 -40 53 0
39 45 35 0
15 30 38 0
-44 50 21 0
-10 38 -40 0
-6 -36 -12 0
-33 15 37 0
36 41 -1 0
25 -1 -37 0
-35 -69 -53 0
43 54 30 0
68 -55 -49 0
31 -48 68 0
-6 19 49 0
-4 39 -69 0
-53 -63 21 0
53 13 -33 0
9 41 -13 0
49 5 -20 0
-69 -54 -2 0
-35 59 30 0
56 -65 1 0
51 -35 -5 0
65 -6 -5 0
-10 44 28 0
-64 -61 -46 0
-1 35 -59 0
-3 -17 -13 0
41 -21 -16 0
-26 9 70 0
-16 -11 -53 0
-33 -63 -19 0
-34 -64 -56 0
34 -62 -19 0
-67 -35 -2 0
-4 33 70 0
-15 -36 10 0
56 -40 -5 0
-39 16 -53 0
-61 -57 -63 0
10 -12 -68 0
-20 53 66 0
-68 -54 9 0
13 -49 -9 0
59 -4 -49 0
-3 67 61 0
-68 -33 30 0
-58 40 -23 0
-50 27 -41 0
5 -27 30 0
-6 -18 -69 0
46 12 38 0
-67 -66 19 0
7 -22 -52 0
-30 -22 -40 0
61 -38 26 0
34 43 33 0
44 21 64 0
-14 64 21 0
56 42 62 0
51 26 68 0
-25 69 -53 0
8 48 5 0
-14 -46 -2 0
-58 -20 -24 0
-30 26 -69 0
25 39 9 0
1 9 3 0
61 10 47 0
2 -43 66 0
14 -24 42 0
-67 -16 -2 0
-10 62 -12 0
-60 41 38 0
-53 57 63 0
49 -51 33 0
53 45 34 0
-1 -19 21 0
-50 -25 63 0
51 -60 -27 0
-40 53 68 0
-50 -45 42 0
10 -5 29 0
3 -40 29 0
3 21 27 0
-2 23 -47 0
5 44 64 0
-54 -62 -2 0
13 -39 -15 0
-19 -27 -1 0
9 4 59 0
47 68 39 0
-35 46 -54 0
-25 11 -2 0
-1 -70 40 0
2 -8 -6 0
-7 32 -45 0
-52 -24 -32 0
-38 43 8 0
-19 59 24 0
29 24 -37 0
-3 -32 50 0
66 -6 -64 0
-64 28 -18 0
-34 44 -41 0
-51 40 -32 0
69 -31 52 0
-28 27 10 0
-25 5 9 0
-47 15 5 0
23 30 -41 0
-44 21 25 0
9 -29 -42 0
-54 -53 6 0
-39 14 -37 0
-30 -35 36 0
4 44 -6 0
-19 70 22 0
-48 5 9 0
-46 59 60 0
37 -39 51 0
6 -25 -21 0
-42 49 19 0
-5 -18 -1 0
-48 -28 -31 0
-57 10 -48 0
-66 45 -30 0
19 54 -10 0
52 -42 61 0
-57 -13 -19 0
-1 -39 -9 0
-43 44 -45 0
-21 8 16 0
-39 -27 -4 0
43 26 62 0
48 4 -35 0
63 18 -62 0
-39 52 -14 0
68 63 -17 0
41 56 -68 0
-53 18 24 0
-20 27 -22 0
69 50 14 0
-45 9 -48 0
-39 47 -46 0
-40 -41 49 0
-67 35 -52 0
-18 65 1 0
-27 10 17 0
26 63 -44 0
-27 -59 -64 0
-34 65 40 0
35 -15 10 0
23 18 39 0
57 69 -11 0
55 -70 69 0
-31 23 -14 0
-36 -65 -46 0
43 -57 45 0
-42 11 10 0
-49 6 -53 0
4 18 25 0
-9 39 -54 0
44 -61 18 0
-65 -38 -26 0
56 -33 -69 0
21 -26 -31 0
51 61 -29 0
70 -12 -57 0
38 -30 -28 0
59 57 50 0
57 -56 43 0
16 4 -54 0
-48 14 18 0
-59 36 17 0
44 69 42 0
-50 60 34 0
-9 -65 -4 0
-13 -39 60 0
-1 20 -6 0
34 -11 63 0
68 -12 -26 0
40 55 17 0
-31 14 -66 0
55 9 2 0
11 13 -49 0
-60 3 -30 0
58 61 24 0
57 -17 38 0
13 -70 51 0
21 -63 -69 0
61 1 64 0
-49 -9 -57 0
-45 -34 7 0
-31 -48 39 0
3 -4 -54 0
-67 1 -36 0
36 66 -33 0
-14 -60 -33 0
-6 -42 -29 0
17 -40 53 0
-69 -53 11 0
-1 21 22 0
-42 69 -49 0
-9 53 10 0
54 -4 58 0
-67 2 -17 0
-39 -47 -50 0
-37 -29 -66 0
64 21 -41 0
-12 14 7 0
-8 -19 5 0
54 -21 -25 0
-65 48 -41 0
-38 13 -7 0
-17 32 44 0
45 10 -1 0
-14 -13 10 0
-38 -9 43 0
-33 -23 -10 0
-8 48 52 0
25 -45 19 0
13 19 25 0
-31 2 55 0
-22 8 19 0
18 -27 53 0
-53 -39 -16 0
29 4 -68 0
49 35 -1 0
51 50 49 0
-31 57 -59 0
3 56 51 0
58 54 17 0
-18 12 -65 0
41 -10 -7 0
-55 30 37 0
47 62 -37 0
-27 -39 -68 0
18 -62 -34 0
-61 70 -29 0
-33 -36 67 0
-63 55 -62 0
-57 -21 -44 0
