p cnf 70 285
5 11 -41 0
63 -41 -9 0
50 -66 -10 0
-63 -3 44 0
46 60 31 0
14 -70 60 0
-68 -51 50 0
70 -28 40 0
-22 33 -13 0
56 -3 -58 0
-44 -17 -24 0
41 -7 -46 0
68 64 23 0
11 17 23 0
-28 35 45 0
56 28 15 0
-1 4 -40 0
-7 -41 -64 0
-68 58 41 0
-36 45 14 0
-56 66 -55 0
-20 -7 -44 0
56 -29 -70 0
24 -46 70 0
63 -68 -10 0
10 60 28 0
-46 2 -51 0
-6 37 -60 0
-29 24 -57 0
-42 17 9 0
15 4 33 0
-13 -31 19 0
37 -9 -36 0
-30 33 -62 0
42 62 22 0
56 58 -67 0
22 14 -15 0
-38 -7 -20 0
-14 38 23 0
-5 44 46 0
14 -32 68 0
-48 32 15 0
24 25 6 0
-36 52 12 0
-22 -6 -3 0
-65 -41 24 0
-50 45 55 0
4 8 -9 0
51 37 -3 0
47 -40 -55 0
52 49 25 0
-36 60 32 0
63 11 -37 0
-62 44 -22 0
-3 -45 -59 0
57 -7 -17 0
-35 48 13 0
-50 -43 -37 0
55 -27 -28 0
32 -36 -4 0
-61 57 -42 0
-29 69 68 0
70 -56 -40 0
28 -67 11 0
-15 19 9 0
26 -67 -54 0
-57 1 -48 0
46 9 -14 0
-58 60 -29 0
-59 16 -21 0
-41 -36 -38 0
-46 26 42 0
24 59 -31 0
16 -66 -35 0
16 4 -70 0
-30 -55 -67 0
-69 68 16 0
-67 -15 -20 0
31 -46 6 0
40 -32 39 0
35 -50 8 0
51 -67 6 0
-53 4 45 0
9 -41 -24 0
60 3 11 0
-17 -15 44 0
43 -1 67 0
59 62 35 0
-5 43 26 0
1 -39 7 0
-42 -15 43 0
40 -55 63 0
-4 -62 20 0
-15 62 70 0
33 51 -27 0
-18 -14 37 0
-43 47 57 0
17 40 18 0
-24 59 53 0
20 -16 -30 0
23 -3 -64 0
13 11 2 0
-46 54 43 0
-8 -36 9 0
-28 29 -50 0
37 -45 -23 0
21 4 -14 0
-17 55 -49 0
-20 67 24 0
25 -52 -36 0
7 8 -64 0
16 -44 -32 0
69 -58 -62 0
-50 -57 -1 0
47 56 -43 0
-39 -41 -48 0
-3 45 61 0
-64 50 35 0
-57 -19 35 0
-59 54 -51 0
-54 -25 12 0
-6 -16 -26 0
30 31 -5 0
-47 44 42 0
-60 46 -53 0
-57 70 -3 0
60 56 70 0
18 22 21 0
56 -70 67 0
-5 37 -22 0
7 69 10 0
28 52 -55 0
1 7 58 0
9 -69 -24 0
52 21 -5 0
-43 38 69 0
-22 55 -38 0
-63 -54 -68 0
-19 33 -3 0
-27 -18 13 0
-13 -37 -9 0
39 35 7 0
-36 -49 -31 0
33 -21 -42 0
-46 -27 -4 0
64 -59 -60 0
44 54 -58 0
42 -30 -18 0
49 -9 -25 0
-53 13 12 0
-31 44 9 0
-17 -40 62 0
-10 33 -49 0
62 -18 -19 0
68 31 59 0
47 21 -16 0
-56 27 33 0
44 59 -57 0
15 -57 -36 0
-24 37 -35 0
-60 -18 59 0
-66 -9 -61 0
-40 -4 -23 0
69 -30 -27 0
46 67 -10 0
37 8 39 0
38 61 -44 0
-37 -30 57 0
-63 -62 45 0
-20 -52 61 0
-21 -14 11 0
49 -67 56 0
-20 45 -60 0
1 30 2 0
-58 37 63 0
-34 -8 -21 0
4 12 -69 0
-24 37 62 0
-40 -28 -70 0
62 42 -39 0
-33 -19 39 0
61 -1 -36 0
59 -62 -49 0
-13 15 -34 0
-11 48 53 0
55 16 -39 0
46 -38 -43 0
21 -69 37 0
55 -33 61 0
32 -60 14 0
66 41 27 0
-32 -55 8 0
4 34 54 0
12 45 -21 0
31 43 -13 0
63 15 -20 0
58 38 61 0
21 26 34 0
-38 -50 -57 0
-52 27 42 0
32 15 68 0
-2 6 34 0
9 -43 -16 0
-46 66 67 0
37 12 -27 0
-27 28 32 0
-14 -27 32 0
67 69 -2 0
-14 -40 -17 0
30 -23 27 0
8 -38 -13 0
33 -26 -30 0
-10 46 60 0
12 29 13 0
-31 2 3 0
-60 -63 -58 0
24 -44 -34 0
69 -39 60 0
-64 -57 1 0
-10 45 53 0
-59 -62 56 0
-29 30 66 0
-69 -21 -22 0
27 -35 -61 0
-32 -57 17 0
12 66 69 0
45 -29 6 0
-7 44 -27 0
-43 38 45 0
-4 -3 5 0
17 -6 5 0
-43 20 -32 0
47 38 12 0
15 67 -35 0
30 -21 23 0
63 16 21 0
41 10 49 0
63 44 62 0
-23 -8 -58 0
60 24 18 0
11 58 -49 0
-59 -17 -63 0
25 -70 49 0
-37 -17 -21 0
55 -21 37 0
14 33 -36 0
5 -35 -49 0
-67 -46 -54 0
69 50 -14 0
-20 58 47 0
-42 -27 -60 0
-50 59 30 0
63 -45 -49 0
58 -29 -5 0
-70 -45 56 0
19 50 39 0
10 53 -68 0
-5 -28 -7 0
-42 -25 52 0
-8 17 -16 0
4 29 -63 0
-39 11 4 0
-64 -65 -70 0
-60 33 -11 0
-26 -62 -30 0
-49 11 13 0
65 -40 36 0
64 -61 40 0
42 50 35 0
-43 15 -10 0
-38 53 -45 0
12 39 -2 0
59 -44 -49 0
-2 31 -15 0
57 34 -13 0
-45 -20 36 0
48 21 -20 0
58 31 -3 0
24 -53 30 0
-54 -50 -65 0
-29 3 55 0
64 -54 39 0
31 -38 12 0
-57 39 -21 0
-59 61 -57 0
