p cnf 70 300
9 -42 -41 0
-39 -41 -53 0
6 -16 -30 0
34 49 40 0
-28 -1 58 0
-10 61 -6 0
-35 33 -70 0
39 62 -58 0
59 54 -27 0
39 -41 -3 0
-1 -61 -2 0
-21 -49 54 0
30 -13 -65 0
-8 -61 -22 0
17 -40 -25 0
-18 -42 -37 0
-13 18 -45 0
42 -65 -1 0
-54 -8 36 0
-49 -11 60 0
-45 55 -52 0
7 -16 67 0
38 2 -18 0
-67 -55 -18 0
-9 2 44 0
-26 7 -4 0
37 69 -66 0
-63 -6 -17 0
12 40 60 0
-70 -31 12 0
-42 67 18 0
-31 -25 6 0
52 62 -30 0
13 -19 -38 0
-65 49 -41 0
58 50 -4 0
-19 39 -24 0
-22 69 -38 0
65 -11 -63 0
68 65 -61 0
-69 -67 10 0
-47 14 59 0
-35 -68 4 0
-62 -9 -33 0
7 -69 30 0
-58 42 34 0
-64 68 -35 0
24 8 -48 0
63 -31 -9 0
52 -61 -14 0
-61 45 -24 0
58 54 -4 0
-5 27 41 0
-70 44 -59 0
-22 62 -59 0
-45 63 34 0
52 -42 8 0
37 8 -11 0
-11 4 -20 0
-20 -24 -39 0
-39 10 -21 0
-6 53 54 0
-54 3 15 0
69 9 -45 0
-11 -52 -68 0
-58 68 -1 0
-46 38 21 0
-56 57 -41 0
57 9 64 0
-52 22 -43 0
-70 20 35 0
60 63 5 0
32 -43 19 0
4 -19 40 0
11 -29 -25 0
60 30 -35 0
-4 -60 -26 0
-17 -70 65 0
47 31 48 0
65 39 -14 0
1 61 25 0
-22 67 25 0
38 50 -53 0
42 -66 -30 0
8 34 -62 0
-36 2 -24 0
-6 64 -58 0
-31 64 68 0
62 67 59 0
44 -57 54 0
60 12 66 0
-9 69 -61 0
68 -53 -40 0
-3 -61 -10 0
-45 18 33 0
35 -55 -54 0
-69 -45 -67 0
36 18 31 0
45 -61 -67 0
-47 -51 7 0
64 27 -50 0
51 -53 -22 0
-54 -24 -48 0
-18 -51 -17 0
-10 34 41 0
36 -27 -32 0
-1 -49 -29 0
-33 12 -8 0
67 -54 48 0
-43 30 -9 0
51 50 30 0
2 64 68 0
29 52 32 0
-35 51 37 0
10 61 12 0
56 3 28 0
42 51 22 0
-11 -29 16 0
57 7 10 0
-69 20 -49 0
-69 -16 -45 0
64 39 -61 0
-50 39 -7 0
-70 53 21 0
-9 -45 27 0
11 47 12 0
31 -51 -27 0
-19 37 -59 0
-29 51 -69 0
-63 17 10 0
64 49 51 0
39 -13 12 0
-51 -23 -14 0
31 -6 21 0
-46 2 17 0
48 11 43 0
-1 39 5 0
-9 38 55 0
-38 2 -65 0
68 -48 -60 0
-44 -40 -50 0
-47 18 66 0
69 -21 -1 0
17 -41 -38 0
31 -18 62 0
-50 48 11 0
66 -1 27 0
41 -24 26 0
-59 -43 -45 0
10 -25 -40 0
-26 24 33 0
-38 -9 -68 0
-35 -49 43 0
-65 -63 5 0
-68 -47 39 0
49 11 -6 0
-42 43 29 0
51 35 -20 0
57 -20 70 0
24 19 -13 0
-49 -26 -60 0
46 9 -32 0
46 34 -17 0
37 -10 -1 0
-61 59 42 0
48 36 44 0
-60 -55 -32 0
41 -36 -65 0
5 21 -17 0
-63 -46 35 0
13 65 9 0
-25 17 39 0
-2 -70 -21 0
53 -64 -20 0
65 -53 -28 0
68 -53 -13 0
-17 32 60 0
-14 64 33 0
-27 33 5 0
60 67 -46 0
-8 -51 -54 0
-11 16 38 0
44 -25 21 0
-13 -5 -1 0
2 -6 -28 0
-29 7 -20 0
36 -6 54 0
66 14 21 0
-18 -41 -19 0
-27 -20 69 0
-62 -32 1 0
-7 -60 -62 0
-23 66 -5 0
-67 26 -9 0
-3 40 -63 0
68 59 55 0
-19 -65 31 0
-53 48 -44 0
44 21 -33 0
62 -58 -45 0
21 -5 24 0
56 60 -24 0
-50 -39 30 0
11 44 69 0
21 -33 22 0
-40 -15 20 0
36 -7 -5 0
-20 31 35 0
-28 -46 40 0
-49 51 -56 0
-42 -69 -67 0
17 -3 -54 0
-49 -35 -13 0
-22 54 51 0
44 -38 57 0
-66 20 -22 0
-43 4 18 0
47 3 -61 0
-42 -18 -34 0
-67 -11 -6 0
-18 -6 -51 0
-29 -35 52 0
-48 -62 -64 0
-5 33 -4 0
61 18 26 0
35 44 -60 0
31 -29 -61 0
-50 -58 -5 0
7 -15 57 0
33 47 -49 0
13 -61 54 0
-6 61 -59 0
11 -65 -48 0
-52 -60 11 0
-21 -49 -4 0
52 17 -46 0
-54 -7 -32 0
26 -60 14 0
-50 -12 52 0
-19 25 -56 0
-53 29 -41 0
-20 -18 -15 0
-5 -30 -66 0
65 -53 31 0
59 54 -16 0
-13 52 68 0
-58 56 57 0
-63 -58 18 0
45 46 -30 0
-51 11 -65 0
-16 -23 22 0
-53 -52 -70 0
34 -31 -36 0
-48 -70 26 0
-32 36 49 0
49 9 -48 0
27 -43 22 0
-59 -38 -65 0
-66 -25 -26 0
-33 -29 58 0
-9 58 66 0
23 14 -61 0
50 54 41 0
17 -54 -47 0
-22 -40 -39 0
-51 -37 -48 0
-21 69 -3 0
-7 -27 -37 0
40 69 43 0
-43 10 63 0
65 -31 19 0
43 48 -54 0
-29 -30 11 0
13 -41 16 0
-3 13 26 0
-42 -65 -38 0
-70 -63 30 0
-12 17 -38 0
43 -8 -34 0
66 54 9 0
38 18 -24 0
-59 -66 -28 0
64 70 -45 0
-67 41 64 0
28 53 -7 0
5 53 -28 0
9 5 -52 0
25 -2 65 0
-43 54 -44 0
-41 7 13 0
38 48 -43 0
15 -61 23 0
-23 -11 18 0
-39 53 -49 0
-17 25 -45 0
-32 12 41 0
-17 40 46 0
7 -59 50 0
-32 -20 -25 0
-46 -25 -53 0
