p cnf 70 275
67 45 -9 0
58 -33 11 0
-21 32 53 0
-22 -4 -10 0
62 -57 -36 0
-49 -68 -36 0
24 -48 -22 0
19 47 -37 0
51 48 28 0
-9 -29 -35 0
-8 -62 28 0
1 -65 17 0
-12 30 -20 0
-33 -18 42 0
50 6 -53 0
-31 -28 -33 0
27 8 22 0
-69 -13 10 0
41 37 45 0
-35 55 9 0
44 11 -66 0
19 36 -23 0
1 68 -39 0
52 62 -29 0
52 -60 64 0
30 -28 -42 0
-45 -31 2 0
-44 -62 45 0
64 -40 6 0
-66 -32 -37 0
34 -29 11 0
-42 4 -65 0
32 31 26 0
20 41 4 0
4 -2 55 0
37 17 -44 0
-6 -27 34 0
-12 -37 -44 0
20 52 -47 0
29 13 -46 0
-10 23 -55 0
8 -10 51 0
35 66 -7 0
-34 56 -3 0
-33 25 55 0
-28 -43 -52 0
-21 -54 31 0
-24 -41 30 0
-66 -53 47 0
3 28 -36 0
58 -41 -69 0
6 1 10 0
26 17 43 0
-43 24 -40 0
-37 4 53 0
-28 -32 37 0
69 36 63 0
-64 -67 -65 0
42 -37 -10 0
16 -35 -23 0
55 58 15 0
-20 41 -62 0
33 9 26 0
61 3 7 0
10 -62 -4 0
-25 16 42 0
33 -50 -52 0
5 38 -58 0
12 54 16 0
21 -2 37 0
63 -25 60 0
-52 43 -26 0
68 28 -59 0
-3 -28 10 0
-39 49 -3 0
-59 -54 9 0
-14 -8 -11 0
-51 52 -58 0
55 -43 21 0
-39 -66 -35 0
-43 18 -51 0
-29 2 50 0
30 14 32 0
65 -42 -39 0
-67 32 -41 0
-57 36 -56 0
-24 -17 -40 0
-33 -8 61 0
-33 -18 65 0
-33 8 34 0
-67 -42 -6 0
-52 -7 -15 0
-43 61 -47 0
-15 -38 25 0
23 -44 -7 0
-59 -68 -13 0
-31 14 67 0
-54 1 70 0
-49 -23 -50 0
33 -35 5 0
56 -46 63 0
-13 -2 5 0
30 2 -67 0
-3 -35 2 0
-50 12 -65 0
-25 -70 32 0
-58 42 -10 0
-31 10 -36 0
-44 49 64 0
-38 5 -52 0
-21 39 -46 0
44 -35 -28 0
46 -6 48 0
36 56 -57 0
60 50 -62 0
2 52 -12 0
-5 9 -2 0
-19 -3 69 0
1 -46 40 0
-35 -61 -16 0
68 -2 3 0
-41 -58 68 0
21 52 3 0
-45 54 -52 0
68 -19 64 0
-10 -8 -3 0
42 -9 5 0
-27 -35 -49 0
44 -35 18 0
-14 16 48 0
-60 10 -70 0
35 62 -49 0
7 -5 64 0
10 8 -41 0
65 55 -34 0
47 65 -29 0
62 65 21 0
52 53 -44 0
49 44 -48 0
21 -43 54 0
-30 -10 65 0
16 -8 -46 0
-49 63 37 0
-36 -12 -22 0
9 -14 68 0
46 -58 -35 0
-26 69 33 0
6 -4 5 0
-69 50 38 0
-4 -69 -37 0
32 -57 -63 0
-47 32 -1 0
-18 -51 -42 0
-70 26 42 0
-18 50 -39 0
-41 -67 16 0
-69 -33 65 0
-55 62 -59 0
-14 -11 -24 0
-23 -20 -28 0
-32 59 10 0
32 -38 17 0
-26 -53 -27 0
18 41 19 0
25 15 52 0
68 -64 41 0
-36 -27 1 0
-6 59 19 0
-2 -39 65 0
40 -14 27 0
63 55 60 0
-27 61 -51 0
61 63 -6 0
44 -39 -22 0
-40 49 17 0
54 -1 -59 0
-43 -7 51 0
-5 -44 32 0
-66 51 28 0
24 61 39 0
-35 57 -39 0
18 -52 38 0
25 -12 28 0
-60 41 -33 0
-62 38 69 0
-65 -11 -56 0
53 43 -26 0
1 -25 70 0
-56 -70 54 0
32 30 -70 0
-31 4 51 0
34 -50 68 0
-3 -19 -10 0
38 47 -16 0
62 14 46 0
-44 -40 48 0
45 32 60 0
-46 9 -42 0
-60 36 31 0
50 61 68 0
-3 -32 -58 0
59 -38 -56 0
33 60 -61 0
57 -15 64 0
65 -7 -52 0
-19 58 -14 0
-40 -70 30 0
-52 56 -46 0
-16 -60 -53 0
35 31 -32 0
56 13 21 0
-17 -5 48 0
1 70 25 0
42 -7 34 0
15 52 -25 0
69 22 31 0
-24 37 -44 0
-21 -16 34 0
8 -62 -29 0
47 -65 -57 0
24 37 -31 0
63 34 -19 0
-18 -4 50 0
-10 23 60 0
-62 -63 61 0
50 11 62 0
-27 -42 -63 0
-53 13 -49 0
-59 48 29 0
-52 41 32 0
16 -3 -22 0
-29 12 -30 0
-17 41 43 0
48 -23 -49 0
-61 44 25 0
-52 -21 59 0
-4 30 2 0
-44 -5 42 0
-32 51 65 0
65 -45 -29 0
6 36 -29 0
8 -59 21 0
39 -34 16 0
-37 -45 -59 0
49 55 -1 0
34 -8 -29 0
-43 70 53 0
57 5 -40 0
24 49 12 0
19 -22 -38 0
-43 50 -6 0
22 43 12 0
-59 -8 46 0
-39 1 23 0
39 -35 2 0
17 10 -46 0
-2 38 21 0
64 -9 30 0
69 33 23 0
-68 -10 13 0
66 -14 -46 0
29 -37 22 0
-14 -11 -70 0
-51 37 5 0
1 66 -52 0
-21 19 -29 0
-50 56 55 0
32 56 -33 0
55 57 60 0
24 51 20 0
5 -36 -42 0
-40 -60 -50 0
-61 60 -14 0
3 59 50 0
-36 35 -40 0
