p cnf 70 280
-20 -43 -29 0
19 -54 32 0
39 -36 -18 0
-51 23 -18 0
14 11 50 0
-39 -6 55 0
47 32 -60 0
36 -51 60 0
-26 4 68 0
-4 61 -56 0
-69 8 -17 0
16 44 -37 0
21 62 52 0
-2 -44 -34 0
-16 -39 -53 0
40 -53 -1 0
-29 -16 -62 0
65 21 -63 0
-59 -41 30 0
58 14 69 0
39 46 -23 0
57 14 65 0
-2 -59 -8 0
-30 45 -47 0
27 52 -68 0
47 -49 -24 0
-39 -15 -58 0
37 -54 -25 0
32 -28 47 0
-2 41 -70 0
62 52 -45 0
-34 30 1 0
59 4 -45 0
-37 63 -20 0
-52 -61 -54 0
-36 29 -55 0
50 57 -6 0
3 12 -39 0
-66 35 53 0
-51 38 -60 0
47 1 52 0
15 16 -25 0
-44 39 -18 0
-10 25 36 0
66 15 -46 0
53 -59 37 0
-55 62 23 0
41 20 39 0
20 -44 53 0
-9 -67 -49 0
47 34 -3 0
49 36 -9 0
-69 19 -9 0
-14 34 -1 0
-47 37 -56 0
-12 -21 -17 0
3 -33 -42 0
-11 -12 -56 0
55 -21 58 0
-11 56 -66 0
-1 68 -53 0
-57 -12 -21 0
-14 64 57 0
47 -35 38 0
20 48 -27 0
-69 -26 -50 0
-60 -5 61 0
-56 24 9 0
-10 29 33 0
-21 55 -40 0
42 -8 -45 0
-5 -54 57 0
34 -8 20 0
-49 40 61 0
-12 -41 29 0
28 -68 -33 0
61 -56 37 0
-27 -57 -29 0
10 68 60 0
34 -44 36 0
-32 -47 21 0
14 -68 -54 0
-42 65 27 0
-29 27 -15 0
-5 53 40 0
51 8 -34 0
20 -30 67 0
-57 -48 -25 0
-4 55 45 0
44 -7 -19 0
-26 41 16 0
-22 -41 -20 0
46 67 -39 0
52 -51 49 0
28 40 -32 0
-55 14 19 0
-68 20 -14 0
49 -25 15 0
-34 -19 17 0
15 -25 36 0
44 -48 22 0
10 11 -55 0
10 -64 -3 0
-42 -16 14 0
14 60 -50 0
36 -5 -20 0
-59 -20 12 0
-13 -42 22 0
-31 51 -8 0
2 32 -10 0
-70 42 34 0
36 8 21 0
67 7 55 0
20 63 67 0
16 60 -50 0
-17 -53 51 0
-18 -13 -23 0
-32 61 -27 0
19 -65 39 0
65 -39 -35 0
42 46 -64 0
-31 -55 16 0
-33 -61 -63 0
50 -4 3 0
-66 16 -63 0
-49 -17 36 0
62 65 38 0
-63 -33 -57 0
-9 48 -33 0
32 36 -16 0
-48 -45 54 0
-7 -41 38 0
34 -57 -53 0
-54 9 -37 0
56 57 -44 0
-36 8 -48 0
14 -39 12 0
-43 6 40 0
-20 -27 -14 0
20 -17 -48 0
-5 -62 28 0
53 -11 24 0
-69 25 -27 0
22 -54 61 0
69 -35 -37 0
-49 -62 63 0
60 -12 -28 0
38 53 22 0
25 -37 -28 0
27 17 -38 0
-59 -5 -34 0
-66 -40 -36 0
-22 57 28 0
-9 -65 -1 0
30 -59 -26 0
55 16 -31 0
10 63 -64 0
6 45 -67 0
-28 -41 37 0
70 -58 9 0
-54 1 -41 0
-12 6 -27 0
50 41 62 0
-5 -39 -24 0
51 27 58 0
-58 -32 -46 0
58 51 64 0
-35 -51 -1 0
23 34 9 0
-30 -41 -61 0
46 -69 33 0
59 50 -61 0
34 -58 -52 0
-58 -70 9 0
-33 53 -41 0
54 62 5 0
46 67 -60 0
-38 -27 29 0
35 -3 -65 0
-27 56 47 0
-59 -35 34 0
-51 66 13 0
-21 -48 20 0
5 24 -66 0
-6 -24 -26 0
-54 27 63 0
-61 -44 13 0
-17 12 26 0
-56 -7 -53 0
48 -10 -61 0
-52 -40 45 0
32 43 7 0
-61 -55 -35 0
-3 -24 -52 0
46 -47 -37 0
-24 -30 34 0
36 -2 51 0
-25 22 46 0
-39 67 -33 0
-10 -27 34 0
-26 39 -65 0
11 -39 -13 0
27 23 -5 0
45 -23 10 0
60 -51 -14 0
-4 -63 13 0
60 8 37 0
-58 -9 -53 0
-43 -62 -9 0
66 36 15 0
36 24 -58 0
23 -65 49 0
60 -55 -30 0
-63 48 47 0
-32 -15 -69 0
25 58 37 0
9 4 68 0
37 -39 41 0
48 -47 -66 0
-60 26 -48 0
17 21 -27 0
27 -1 -35 0
-6 -23 56 0
32 -34 -9 0
-35 -23 -33 0
56 -45 -44 0
66 -55 47 0
-50 -59 -70 0
-19 -18 -54 0
-27 50 -13 0
64 57 -54 0
-31 51 -42 0
28 -18 -62 0
28 -27 60 0
3 -8 -28 0
-66 -17 70 0
36 -48 -26 0
63 53 -58 0
3 61 -69 0
49 57 19 0
-24 -46 18 0
-51 35 30 0
19 -17 -30 0
8 -58 -54 0
48 58 -64 0
31 17 -29 0
-15 -57 1 0
-20 -24 34 0
25 -37 -28 0
-52 -69 -50 0
-37 34 22 0
44 13 -50 0
-64 30 -38 0
-3 69 43 0
-5 -64 54 0
-45 -36 63 0
-10 39 -67 0
43 -39 49 0
-19 -62 -15 0
13 -57 51 0
58 -29 43 0
-53 26 3 0
9 20 18 0
-31 5 -4 0
-51 -70 -12 0
-25 -34 15 0
8 20 -47 0
62 -1 60 0
-20 -58 64 0
57 -14 13 0
33 -49 37 0
-35 -52 -40 0
8 67 36 0
47 46 -42 0
-20 14 26 0
28 60 55 0
57 -64 1 0
-25 69 -12 0
-1 -69 49 0
-60 62 -24 0
