p cnf 70 295
40 -37 10 0
69 -14 16 0
54 7 1 0
-29 -36 -39 0
17 -21 64 0
-12 38 -8 0
18 -31 -54 0
-10 17 34 0
-69 30 -54 0
-14 -15 8 0
-13 58 47 0
47 -53 -38 0
-1 24 53 0
-48 9 18 0
-19 66 -25 0
27 -32 -3 0
49 -8 -6 0
-53 -7 -26 0
-36 -49 -53 0
-29 -15 -20 0
9 47 -53 0
-20 4 -24 0
56 -5 -4 0
17 -65 -37 0
-39 -4 -65 0
39 32 62 0
33 58 -37 0
47 -51 29 0
-11 29 -28 0
1 22 -27 0
-38 -33 -68 0
34 -13 -18 0
-18 39 -45 0
42 -44 19 0
-55 26 -40 0
64 -13 10 0
-41 -40 29 0
64 -34 -55 0
-65 57 -43 0
-51 -8 -9 0
40 -4 -70 0
-32 9 -70 0
-1 45 56 0
-37 -18 12 0
-69 -59 14 0
-59 -17 51 0
14 48 64 0
70 -37 61 0
-36 28 60 0
-5 16 37 0
-1 33 12 0
4 24 -59 0
-5 -56 67 0
29 -14 -32 0
8 -63 20 0
-6 21 49 0
-38 10 19 0
64 15 46 0
-41 -31 -37 0
64 37 56 0
-56 2 36 0
-60 -46 55 0
-18 65 63 0
-7 -67 31 0
-32 -7 -49 0
-23 -35 -52 0
17 -64 50 0
-7 -35 18 0
-7 -40 -36 0
45 -40 35 0
-56 63 20 0
29 -55 10 0
-22 60 17 0
6 50 -46 0
23 -58 18 0
14 70 60 0
-2 -20 48 0
28 -19 -50 0
-31 -41 -19 0
-7 -51 -13 0
-4 45 61 0
-70 2 -65 0
-45 34 30 0
-43 -28 3 0
50 70 -49 0
61 -23 -37 0
-63 -5 -70 0
-61 -2 21 0
-16 34 -45 0
45 -5 51 0
38 16 -62 0
-20 32 39 0
-17 -44 55 0
39 42 -45 0
-28 -54 -15 0
-35 42 33 0
-1 -60 61 0
3 -24 8 0
35 27 -30 0
50 56 -43 0
50 67 21 0
-11 59 -55 0
-11 1 15 0
47 -29 -13 0
-23 53 -66 0
-34 30 24 0
20 58 60 0
3 -26 67 0
-34 -57 56 0
38 -5 2 0
-42 8 52 0
-18 44 14 0
-58 70 -50 0
28 5 -7 0
-35 -6 -48 0
58 29 -27 0
59 -38 68 0
-38 -26 30 0
-5 -24 50 0
28 56 67 0
30 68 12 0
64 33 -30 0
-58 46 -68 0
-41 -30 54 0
-19 -53 24 0
9 -25 47 0
13 56 45 0
54 42 37 0
47 10 36 0
-42 -65 -36 0
32 25 -64 0
33 43 15 0
57 22 55 0
50 1 -13 0
58 -46 47 0
7 22 -8 0
13 -39 -48 0
-13 54 25 0
-34 63 -62 0
16 30 27 0
-58 49 -36 0
-61 25 27 0
28 6 -31 0
-43 -68 45 0
-38 39 -27 0
46 55 -62 0
18 45 -6 0
-10 32 70 0
55 26 -66 0
50 -8 -3 0
2 52 -56 0
41 55 50 0
12 -64 67 0
28 -38 46 0
-24 69 18 0
-6 31 37 0
-66 -48 -51 0
-30 -18 -5 0
-46 -23 -33 0
-42 64 5 0
64 23 -46 0
-41 -70 -9 0
-30 -49 -52 0
16 -63 39 0
36 -7 33 0
-32 35 46 0
-39 25 -19 0
-26 -60 8 0
65 -36 47 0
39 20 42 0
-32 -59 41 0
-4 -1 -26 0
-12 -62 -51 0
28 40 46 0
-10 46 32 0
31 -9 -23 0
-17 -4 -57 0
67 69 -33 0
61 -57 9 0
52 51 69 0
-54 48 5 0
-53 -52 61 0
-58 -39 -38 0
35 -36 57 0
25 -56 8 0
-20 39 29 0
-53 -39 -21 0
-55 21 -64 0
-48 -21 -31 0
70 -60 68 0
-56 -12 48 0
49 -50 61 0
-58 -5 52 0
-48 15 66 0
52 -28 -20 0
-69 64 -60 0
70 -2 43 0
24 -9 -68 0
31 50 63 0
4 24 18 0
-36 -67 4 0
-48 20 -23 0
-55 -12 27 0
-62 45 68 0
-4 -29 2 0
-12 56 -28 0
39 27 68 0
-69 -61 -52 0
-50 58 30 0
43 40 -19 0
9 -59 -69 0
-13 -60 -17 0
-12 -68 21 0
25 51 -66 0
-65 52 -7 0
-48 -39 8 0
4 40 11 0
40 24 -36 0
59 62 45 0
-62 -66 15 0
-70 -60 34 0
-32 -42 -30 0
-63 66 11 0
56 -30 -5 0
43 13 -1 0
19 66 -9 0
-16 56 27 0
28 -21 -31 0
7 -64 -41 0
-37 5 3 0
9 -65 52 0
69 -43 -40 0
-13 37 45 0
57 28 -45 0
33 -31 25 0
-19 -52 -10 0
46 4 59 0
-37 69 10 0
-15 -66 -54 0
36 63 -17 0
56 -4 -45 0
-65 2 -23 0
-63 -27 65 0
8 59 -39 0
30 -59 -49 0
22 -53 -48 0
-8 -23 38 0
51 -66 29 0
15 -45 32 0
-60 42 -34 0
-51 66 -15 0
-3 40 31 0
-9 -38 -68 0
-22 44 -8 0
-6 -67 33 0
63 27 17 0
-30 64 33 0
61 -32 -56 0
-38 28 -13 0
26 -15 -45 0
7 22 -34 0
14 -6 -43 0
-33 65 55 0
4 48 -28 0
61 -7 13 0
-10 -26 -54 0
19 -65 61 0
33 -67 46 0
-23 65 -60 0
10 20 51 0
-16 40 -13 0
4 -66 18 0
-29 8 -24 0
54 -61 -62 0
-56 25 22 0
-21 -58 -28 0
-24 1 55 0
-52 -48 -4 0
63 -43 47 0
24 -69 33 0
-66 -55 -69 0
-27 -42 -4 0
-24 -34 -38 0
-12 18 -38 0
-65 28 -60 0
-57 17 10 0
-54 -41 62 0
-18 2 -28 0
59 7 -46 0
51 50 38 0
-6 61 -46 0
-15 -48 30 0
-63 -28 -22 0
17 -18 -63 0
-1 -22 49 0
