p cnf 70 295
38 -44 42 0
31 -23 28 0
-46 -49 -67 0
42 -20 -30 0
28 -19 -5 0
-67 -32 -14 0
39 17 -66 0
55 -69 -27 0
40 43 -30 0
-4 57 -60 0
8 -26 -32 0
50 56 66 0
68 2 23 0
-45 -14 -50 0
-22 55 -70 0
-40 -47 44 0
-24 -9 47 0
53 -61 -54 0
-40 -34 42 0
-23 -65 32 0
38 -17 16 0
34 -70 -69 0
23 65 27 0
-32 64 68 0
44 -7 -11 0
-57 54 4 0
-55 60 -70 0
-39 -40 -66 0
-69 39 38 0
53 -8 -59 0
-24 20 27 0
11 5 -44 0
47 -43 36 0
-21 1 -35 0
57 -40 -19 0
-41 -23 -25 0
15 -52 -16 0
-23 -13 -26 0
-36 2 27 0
19 -59 -41 0
-42 -19 20 0
30 -69 -11 0
-33 -34 -62 0
-48 68 64 0
-50 -12 -32 0
15 29 -57 0
-21 -55 -70 0
-48 -39 -22 0
70 23 62 0
35 -41 -52 0
-68 63 66 0
26 39 15 0
11 12 -27 0
66 2 -20 0
28 51 -41 0
-14 -40 -61 0
-4 15 29 0
2 20 59 0
-30 65 52 0
-12 -40 -2 0
7 -62 51 0
15 -30 61 0
27 18 -3 0
-60 45 52 0
-47 64 2 0
-22 10 20 0
-46 16 -33 0
47 40 -31 0
-4 -42 -57 0
29 61 25 0
-57 -52 30 0
-50 66 -39 0
23 53 -2 0
-43 44 -34 0
5 -14 -57 0
23 -17 1 0
-6 -10 16 0
19 -69 32 0
43 -40 -57 0
20 -63 12 0
-2 -40 -30 0
-19 -29 32 0
-41 70 1 0
15 48 55 0
-24 4 -61 0
52 49 -13 0
53 11 -14 0
-13 -21 -59 0
19 -12 -61 0
-30 17 -67 0
-14 -64 69 0
-31 40 -45 0
-63 15 61 0
-7 -35 55 0
-9 -45 15 0
49 -54 55 0
66 -40 -9 0
-28 41 -60 0
61 57 -3 0
-26 24 -52 0
-2 69 36 0
30 -69 25 0
-60 -54 32 0
-62 -25 -50 0
-10 25 -46 0
17 66 65 0
-17 -8 16 0
-55 -4 39 0
28 43 60 0
-60 61 -13 0
11 -60 25 0
-18 -61 60 0
28 1 -42 0
26 -52 38 0
50 -5 -51 0
-66 -60 -30 0
-15 26 -56 0
22 33 6 0
27 70 -37 0
58 -16 4 0
46 13 40 0
-4 46 7 0
40 -20 67 0
55 13 -5 0
-1 17 14 0
-41 -33 52 0
-5 -52 -35 0
44 -15 -8 0
-64 23 41 0
-40 -59 18 0
49 -45 24 0
3 67 -53 0
-45 -24 -37 0
-70 11 41 0
-35 63 -56 0
34 69 39 0
61 -53 10 0
-6 -7 -57 0
-26 -63 7 0
-18 -34 27 0
-21 56 -1 0
39 25 -18 0
22 -24 -58 0
14 70 27 0
2 -32 -48 0
-6 2 21 0
-63 -69 60 0
-22 -4 -62 0
-38 69 -61 0
-39 34 -14 0
-70 -9 25 0
-70 -38 -24 0
-19 -32 52 0
12 53 31 0
-47 -56 -27 0
51 31 -49 0
-7 -44 24 0
61 32 -66 0
-49 -67 4 0
55 19 -56 0
61 -8 -70 0
-34 40 17 0
-59 -48 68 0
-45 -44 -54 0
46 38 -54 0
7 -66 -56 0
-38 62 -17 0
2 -69 35 0
58 66 -13 0
21 41 10 0
-21 -3 5 0
66 -68 42 0
35 -51 -65 0
-16 24 -40 0
49 -10 -64 0
70 2 -19 0
-26 48 -70 0
-15 -55 -65 0
44 -21 31 0
35 36 60 0
10 -50 -56 0
21 41 -13 0
-54 27 33 0
68 43 -40 0
-59 -11 40 0
29 -39 -5 0
-48 43 35 0
-6 -40 66 0
10 26 18 0
-50 -39 55 0
19 -53 5 0
63 -46 -14 0
23 -69 -25 0
19 -17 42 0
-17 25 31 0
-30 40 51 0
-54 63 34 0
10 33 28 0
-51 27 65 0
-35 -70 7 0
65 -61 41 0
31 -54 -49 0
-31 43 -8 0
-15 -38 31 0
64 -53 44 0
-17 -54 -14 0
20 35 -58 0
-43 -32 -9 0
61 1 -5 0
-38 -55 -23 0
-61 23 -52 0
-8 41 -21 0
38 51 31 0
40 27 -30 0
-29 -56 -66 0
12 -54 22 0
-12 -61 45 0
-48 65 60 0
68 45 17 0
-31 59 55 0
50 -9 -6 0
-16 -58 -32 0
-68 44 -66 0
-54 -8 52 0
-34 9 -2 0
40 46 69 0
63 -8 54 0
-30 57 7 0
46 -63 8 0
10 -9 54 0
15 -38 -11 0
-47 -1 -56 0
-24 68 -65 0
8 -55 6 0
-5 32 -6 0
-61 31 16 0
-18 -16 54 0
-57 -51 -38 0
26 7 -62 0
-66 35 -18 0
29 -60 -13 0
-55 -5 -21 0
-24 65 -69 0
-70 66 30 0
-38 -26 -9 0
69 17 28 0
-59 27 24 0
-3 -47 50 0
-26 -11 13 0
66 21 -22 0
18 51 -13 0
21 38 50 0
15 -54 -60 0
-28 -54 31 0
-8 57 -38 0
57 47 69 0
-68 -46 18 0
27 38 -39 0
-22 41 24 0
51 -26 -63 0
-62 -56 -43 0
57 -15 70 0
-44 46 -11 0
-30 57 -3 0
18 67 -64 0
51 28 -65 0
22 23 57 0
60 48 -31 0
-13 -12 -68 0
-24 22 -60 0
6 -55 40 0
20 10 -7 0
-49 -53 61 0
28 -21 -12 0
29 55 -68 0
-44 10 -7 0
26 -58 40 0
31 -44 27 0
-61 -40 35 0
70 -1 42 0
22 36 67 0
52 70 49 0
-20 46 13 0
-22 -63 61 0
25 -15 12 0
54 20 11 0
-22 10 -31 0
46 10 34 0
68 -39 -16 0
21 -55 12 0
10 57 68 0
-38 -16 17 0
31 28 -41 0
-1 35 18 0
4 -60 28 0
