p cnf 70 270
-57 -52 -41 0
40 28 18 0
-20 -63 16 0
25 14 -24 0
-52 18 -17 0
-40 11 -6 0
68 12 -39 0
55 35 -33 0
-69 27 -65 0
-41 62 -17 0
35 -22 14 0
53 -69 -13 0
-26 -48 9 0
-41 -6 -52 0
60 53 68 0
-41 -4 -68 0
6 37 5 0
-35 68 -3 0
-38 21 56 0
-10 -51 -46 0
49 -59 31 0
8 -48 -60 0
8 -58 -30 0
-40 -37 5 0
2 -20 -6 0
45 -44 -41 0
16 -62 11 0
-22 -64 -2 0
-4 60 38 0
48 4 -69 0
-27 32 39 0
68 64 28 0
68 46 -36 0
2 -35 3 0
15 -5 70 0
70 -45 -24 0
-38 50 63 0
-69 23 -45 0
-40 53 -42 0
33 -38 -6 0
-69 -32 64 0
54 25 -45 0
55 63 -49 0
26 -32 23 0
32 63 -23 0
-47 68 -3 0
17 42 48 0
4 -33 49 0
29 -68 58 0
4 3 -49 0
63 11 -18 0
-27 -58 -19 0
-49 14 47 0
23 39 2 0
-35 -30 52 0
-24 -30 5 0
24 36 6 0
60 -19 -48 0
-16 -50 5 0
-8 52 -39 0
63 -62 -44 0
-27 -45 -9 0
-7 50 70 0
56 -64 12 0
-21 39 11 0
-43 -54 59 0
-40 50 11 0
32 -38 18 0
-15 24 43 0
-40 -42 -48 0
49 -69 22 0
70 -19 44 0
-26 69 11 0
31 35 -34 0
-22 -68 32 0
-14 68 57 0
-29 -8 -43 0
-44 25 41 0
53 -40 24 0
-25 22 14 0
-57 25 -66 0
25 33 -51 0
-15 22 55 0
20 48 29 0
-44 26 -68 0
-55 29 67 0
24 -36 -66 0
-17 68 57 0
-44 -47 -46 0
63 -22 -1 0
-26 -56 -59 0
-56 10 -51 0
-16 -57 47 0
15 -52 -8 0
16 41 46 0
62 -48 -32 0
51 16 55 0
-11 32 -56 0
-36 -66 -57 0
-51 46 -47 0
-53 -4 -19 0
66 -33 -51 0
-26 8 -29 0
-5 70 -59 0
-59 32 -10 0
65 -14 -8 0
34 46 -24 0
26 45 -28 0
-68 -20 -32 0
-36 6 -30 0
37 -60 -61 0
-64 -20 43 0
51 -61 -11 0
-15 12 39 0
-9 67 21 0
-69 -7 62 0
48 -2 -18 0
-16 -6 -13 0
-27 20 -49 0
7 -42 41 0
29 23 -17 0
-25 -1 -21 0
40 -4 8 0
24 69 -61 0
-17 -63 -51 0
-6 59 -24 0
3 21 -58 0
-20 -14 55 0
67 -28 -51 0
-12 20 58 0
-63 -59 52 0
-60 49 -67 0
-32 -46 33 0
9 60 -3 0
13 -63 -30 0
-8 69 -3 0
56 22 -49 0
23 -40 13 0
8 -28 37 0
31 24 -32 0
-62 -17 21 0
-57 2 26 0
17 39 -62 0
-35 -67 3 0
32 -18 -56 0
18 58 -33 0
-32 7 12 0
4 -67 -1 0
-70 -44 37 0
-6 -63 12 0
-35 -45 30 0
-37 11 -16 0
-58 -23 -4 0
-46 57 -70 0
-57 10 -61 0
64 -42 -27 0
23 -43 26 0
30 1 28 0
-22 -49 33 0
38 -5 -11 0
-21 22 34 0
-41 15 -68 0
46 45 -67 0
17 -11 40 0
-60 46 -35 0
-4 -32 1 0
-66 2 7 0
54 -22 -47 0
60 -48 46 0
46 -12 -33 0
25 67 66 0
57 -47 -44 0
32 28 58 0
44 23 53 0
-44 -42 -6 0
-32 -26 21 0
58 -1 -22 0
56 -20 -57 0
-48 -43 15 0
-5 -51 -9 0
61 -67 15 0
50 65 -18 0
-62 -47 -28 0
39 13 -33 0
-37 24 -25 0
-22 18 52 0
24 -12 52 0
51 68 38 0
-27 64 53 0
-61 35 -56 0
61 11 -23 0
-41 -18 40 0
65 -53 -21 0
-8 -46 -21 0
50 -7 34 0
-17 -3 -51 0
14 -19 -3 0
-3 -36 42 0
-62 -26 -10 0
-14 -26 -70 0
57 -44 56 0
24 25 -55 0
-46 51 -36 0
-39 -61 41 0
-43 42 5 0
-57 43 55 0
14 -25 57 0
-28 -49 -62 0
22 47 -63 0
38 -10 4 0
46 -27 61 0
-19 -62 63 0
-66 3 -17 0
41 -67 -31 0
41 33 -40 0
-35 -67 37 0
36 -55 -27 0
-21 -24 -65 0
-67 50 54 0
53 -65 49 0
6 30 36 0
13 -6 -52 0
10 -36 -30 0
-41 -7 -59 0
-33 48 7 0
-41 16 -28 0
-26 -11 66 0
-49 46 48 0
-18 16 -60 0
-38 -52 -5 0
-28 -68 6 0
-64 9 -21 0
-38 -40 -23 0
-46 32 -48 0
-9 57 48 0
59 -16 -57 0
24 11 -70 0
-19 8 -20 0
-48 5 60 0
15 65 -30 0
-63 47 55 0
19 53 40 0
-11 -29 14 0
-50 33 69 0
-70 -38 -28 0
21 -54 -18 0
61 -9 48 0
-52 5 12 0
-27 -7 -39 0
15 -39 -67 0
-5 47 -55 0
53 51 39 0
6 34 -48 0
47 32 -10 0
12 -27 62 0
-66 62 67 0
57 45 42 0
-23 56 -16 0
-24 55 -15 0
44 26 -4 0
30 68 -65 0
-16 -10 49 0
-23 -38 -10 0
3 -62 -29 0
-2 5 -63 0
-52 -11 -62 0
-52 -33 21 0
56 -61 1 0
37 43 -53 0
-68 36 39 0
