p cnf 70 295
-56 -14 15 0
13 -56 -50 0
24 68 -40 0
-68 51 -70 0
51 4 -17 0
60 10 -42 0
19 22 -57 0
68 -70 -13 0
-47 25 -24 0
58 -63 60 0
-30 -9 -24 0
20 -47 60 0
-66 51 34 0
-70 59 61 0
27 70 -23 0
-54 -68 -37 0
43 -12 48 0
50 57 3 0
21 19 -23 0
-21 -37 40 0
10 -42 56 0
-7 67 1 0
-68 44 -18 0
38 -24 -57 0
39 27 57 0
-33 -37 -64 0
-69 -31 38 0
-68 5 44 0
20 -58 64 0
35 -16 -65 0
-8 -35 67 0
-56 33 53 0
-45 -5 27 0
23 -39 43 0
-3 45 69 0
-12 -36 -7 0
-25 13 26 0
-29 17 32 0
10 61 37 0
48 28 -51 0
11 -26 55 0
43 13 -25 0
35 37 -65 0
56 -52 -70 0
2 -20 -22 0
-5 -68 -64 0
-24 -19 -4 0
51 23 -12 0
-44 -45 -50 0
-70 -12 27 0
-11 -41 48 0
14 50 51 0
-70 25 -61 0
44 -32 19 0
-30 51 -26 0
41 37 -66 0
28 39 16 0
-28 -60 -62 0
47 12 -51 0
11 -58 -44 0
11 -60 -18 0
-61 -57 35 0
-8 -37 -33 0
5 42 -43 0
19 27 62 0
-25 62 68 0
49 69 64 0
23 -67 -6 0
22 -64 24 0
30 -46 59 0
-7 55 67 0
37 7 42 0
-13 41 64 0
2 -45 -58 0
3 52 25 0
-56 -67 -40 0
-42 17 -19 0
-38 66 -50 0
34 -4 42 0
63 -5 57 0
-3 -20 13 0
27 15 -52 0
49 67 10 0
27 54 56 0
-54 -33 -2 0
48 29 36 0
-2 57 15 0
-50 23 9 0
35 5 32 0
-23 -38 5 0
-11 -29 67 0
28 -53 -5 0
46 -52 45 0
-69 45 -21 0
37 -7 8 0
-53 57 -30 0
-47 5 -4 0
-15 2 -45 0
-18 -52 -8 0
57 16 52 0
29 54 -32 0
41 70 -22 0
-23 50 37 0
-55 16 -51 0
-39 38 -33 0
-12 10 51 0
-50 26 8 0
-45 -44 -24 0
-35 -64 25 0
44 -38 -36 0
-7 -46 34 0
-38 -16 56 0
-51 -40 -26 0
70 1 9 0
-5 -23 -8 0
60 -51 -11 0
-8 -64 22 0
44 23 -56 0
-18 25 59 0
60 -40 52 0
-34 -33 -29 0
45 -13 -10 0
-34 4 -21 0
-62 -20 -50 0
-48 -28 -54 0
-3 25 -15 0
13 14 61 0
-15 -50 -10 0
50 28 70 0
-52 -48 -10 0
-32 -69 -34 0
-53 -65 2 0
-64 2 3 0
58 52 -5 0
59 -39 -68 0
-55 14 21 0
58 15 -2 0
13 -64 27 0
23 5 9 0
8 -41 -66 0
47 70 65 0
-1 49 -30 0
-5 -35 26 0
46 -34 16 0
58 -53 -59 0
-54 55 18 0
25 60 66 0
-12 -59 70 0
-43 -26 27 0
-7 -66 -39 0
3 -40 58 0
-17 49 -50 0
-14 -32 -39 0
36 67 -44 0
70 47 -17 0
-19 5 -32 0
22 -65 68 0
49 -6 14 0
-61 56 -41 0
55 -32 33 0
17 24 39 0
-65 15 -9 0
50 22 8 0
51 2 46 0
-48 5 -43 0
-44 60 1 0
27 25 19 0
14 -68 -29 0
60 -10 -1 0
23 -1 66 0
-44 -70 14 0
-51 -32 40 0
56 -64 37 0
39 27 46 0
-69 65 17 0
-7 21 -47 0
-67 -16 -33 0
-2 -22 1 0
46 -67 14 0
-23 -52 27 0
31 57 12 0
-42 56 5 0
-43 -24 -17 0
50 47 13 0
-48 44 -42 0
-45 24 -35 0
61 -25 8 0
-18 9 26 0
59 -49 22 0
-59 -35 70 0
-46 35 41 0
-1 55 -52 0
-35 17 -33 0
50 -1 37 0
15 -24 -49 0
-66 -50 59 0
-15 -29 -23 0
29 11 -30 0
-56 -30 33 0
37 48 30 0
28 -68 -7 0
11 49 68 0
-44 -43 38 0
39 1 58 0
70 -48 -24 0
-21 -19 -63 0
12 -6 53 0
45 23 -62 0
29 -61 60 0
-44 -50 13 0
7 -60 46 0
63 -17 -2 0
18 33 30 0
30 -28 -70 0
-5 20 49 0
1 -33 12 0
33 -16 -9 0
50 55 -43 0
-48 -20 25 0
-22 -12 16 0
-10 -50 64 0
16 38 -57 0
20 -46 -53 0
-45 -28 -4 0
11 -22 -66 0
57 3 -23 0
39 43 35 0
5 -14 -3 0
-13 -45 -41 0
-29 -40 2 0
-26 -13 -70 0
-35 -51 58 0
13 -19 42 0
-47 -8 -20 0
-2 45 -35 0
54 -60 -20 0
8 -6 14 0
67 -22 -29 0
-32 -49 4 0
-11 27 42 0
-65 13 -24 0
-62 -45 2 0
34 25 -1 0
61 -9 4 0
-69 37 -31 0
-41 8 56 0
-63 23 70 0
-2 -63 -5 0
1 61 -65 0
-20 33 8 0
-69 34 67 0
29 8 3 0
41 -7 31 0
-30 13 -25 0
-70 -37 -49 0
-26 -1 15 0
-10 -20 18 0
-51 49 -68 0
67 16 69 0
-69 34 -24 0
-52 -49 67 0
48 27 4 0
-52 -10 -68 0
-9 -18 30 0
-22 -44 16 0
55 9 68 0
-35 7 54 0
-23 3 -48 0
50 37 34 0
23 -7 2 0
70 -9 -31 0
-48 60 -61 0
-40 -36 -21 0
15 18 -21 0
-41 -69 -5 0
19 -41 -25 0
51 -47 -64 0
-18 -47 -11 0
-63 -15 -59 0
4 -36 -9 0
-53 -44 -29 0
-42 -67 44 0
-44 35 -48 0
-18 -59 63 0
-57 -35 39 0
-33 16 32 0
38 -8 -35 0
30 -33 -44 0
7 27 -56 0
-66 65 -61 0
61 -32 53 0
62 -9 25 0
-43 -3 -52 0
-70 63 -60 0
-17 -16 61 0
