p cnf 70 275
-26 -37 -30 0
40 7 -41 0
-54 36 31 0
50 6 38 0
60 36 -17 0
67 -23 32 0
65 -48 -38 0
10 16 23 0
3 12 -47 0
49 11 57 0
-69 56 -1 0
31 -19 -18 0
62 22 46 0
68 67 -15 0
-63 6 52 0
-48 19 39 0
-20 -25 39 0
-7 -3 6 0
-32 -26 40 0
-25 -56 46 0
6 -65 23 0
59 2 35 0
65 -33 -49 0
-3 13 -50 0
2 29 -53 0
-42 -29 -5 0
62 -22 30 0
-1 -21 64 0
-20 19 -62 0
-39 1 54 0
4 45 58 0
35 18 43 0
42 40 -34 0
63 19 59 0
-39 4 12 0
29 -15 31 0
-36 23 60 0
44 -5 -55 0
35 -62 23 0
15 28 53 0
68 -18 -63 0
38 -61 -12 0
24 -66 -61 0
11 -10 13 0
-44 -33 -50 0
34 -68 33 0
-46 4 -55 0
-45 -8 2 0
55 -59 39 0
41 62 22 0
26 -2 63 0
11 50 -10 0
30 -18 -35 0
44 22 -49 0
19 -25 70 0
26 51 -23 0
-20 51 -22 0
51 -54 -43 0
67 8 13 0
33 -48 43 0
-44 24 -5 0
62 -29 70 0
-41 -22 39 0
46 15 34 0
-28 51 25 0
35 28 -63 0
66 -43 -1 0
38 -57 -18 0
59 -38 -54 0
60 33 51 0
-59 26 48 0
15 -1 6 0
36 -32 -67 0
-44 -40 31 0
42 59 66 0
-55 26 -10 0
10 -41 39 0
-46 -33 45 0
-37 -65 -64 0
-70 -25 42 0
-26 32 24 0
-3 -56 -20 0
-34 -23 -40 0
26 -43 50 0
-11 -61 13 0
57 32 4 0
69 -34 30 0
-57 -44 40 0
-36 -27 4 0
18 -61 55 0
-41 -27 -16 0
53 -69 2 0
-50 -13 -55 0
-27 70 -5 0
-47 65 -49 0
-44 -47 17 0
-35 14 -10 0
-55 2 -38 0
-8 -50 22 0
28 22 -57 0
-37 2 -40 0
9 37 -50 0
57 63 3 0
-57 -18 20 0
37 -18 -48 0
-68 5 -53 0
67 27 40 0
27 36 39 0
-14 -55 28 0
-8 35 13 0
-22 -23 -30 0
-52 66 -40 0
-6 21 -38 0
22 -46 -47 0
-38 -24 -26 0
-63 -7 -57 0
35 -63 -33 0
-2 -12 60 0
52 9 -46 0
69 -24 -60 0
37 -66 -13 0
-5 8 58 0
-43 19 12 0
12 14 -29 0
38 -41 -53 0
-12 7 -42 0
-32 -1 -41 0
7 64 70 0
-50 43 29 0
-5 22 4 0
-38 -15 -18 0
68 -21 -66 0
40 58 20 0
-45 65 -39 0
-9 -14 -59 0
-46 53 44 0
-56 -45 -61 0
5 66 -44 0
11 -45 32 0
-62 -3 -53 0
-39 21 49 0
35 53 49 0
-49 32 24 0
-59 -22 -36 0
-47 -1 44 0
48 10 -63 0
32 -5 38 0
30 7 -49 0
-64 32 39 0
-45 -30 -55 0
19 3 37 0
-8 -28 -1 0
13 4 62 0
2 -47 -32 0
32 -27 -33 0
46 61 13 0
44 11 -43 0
25 -5 -46 0
5 9 2 0
-17 44 47 0
-10 51 28 0
8 -4 9 0
70 17 -41 0
-16 57 62 0
11 -20 -26 0
4 63 -14 0
-63 51 52 0
-8 11 -68 0
-46 60 -34 0
66 42 38 0
69 -26 57 0
35 33 -21 0
54 24 -26 0
-26 69 20 0
13 -10 -58 0
52 -58 -43 0
-34 -52 68 0
-56 -60 -48 0
-38 -13 7 0
34 -40 -37 0
9 -29 34 0
13 69 30 0
65 -25 -39 0
-61 -51 69 0
-70 44 42 0
-40 -52 14 0
-29 49 -4 0
-45 -50 -27 0
-38 -24 -27 0
-25 -4 -62 0
1 18 66 0
48 -50 -20 0
58 -34 -31 0
-5 -21 56 0
31 38 33 0
15 -10 -6 0
-51 -28 -55 0
-27 -43 -20 0
-59 -20 2 0
-15 49 -62 0
-70 2 -41 0
-56 64 -8 0
-56 35 50 0
-9 -60 -29 0
-2 13 -14 0
53 43 -36 0
-70 -30 -62 0
-68 -46 -7 0
-4 61 -67 0
70 59 11 0
7 -37 31 0
-55 67 -26 0
59 53 -19 0
42 -21 -64 0
18 -43 -61 0
-57 23 70 0
-63 1 62 0
-5 -52 -36 0
1 -32 -33 0
41 23 -70 0
-24 -51 -33 0
-13 -40 -30 0
-18 29 53 0
22 -29 -41 0
2 9 58 0
12 56 20 0
-44 -65 41 0
55 12 68 0
35 30 -26 0
-68 33 64 0
25 30 62 0
18 53 -36 0
-56 -14 -38 0
40 1 50 0
29 -38 45 0
46 22 -16 0
54 -31 5 0
69 20 61 0
-27 55 -20 0
-1 39 -40 0
33 -37 59 0
-57 51 -3 0
-64 18 -42 0
47 30 58 0
-62 28 22 0
55 -62 -60 0
45 -40 -44 0
20 -15 -21 0
13 38 -5 0
52 -61 -46 0
12 8 -58 0
-67 -56 -29 0
-32 24 -5 0
48 49 8 0
-58 -45 -15 0
-4 9 -63 0
-57 -4 24 0
-42 58 26 0
1 30 37 0
40 -69 23 0
7 -38 58 0
-56 42 6 0
25 31 18 0
-67 35 48 0
31 -3 -9 0
15 58 64 0
23 38 67 0
-8 19 -40 0
-18 -43 55 0
61 -53 32 0
33 23 -10 0
43 54 -18 0
-54 43 61 0
1 -69 19 0
50 54 18 0
