p cnf 70 310
-45 3 69 0
-8 33 -41 0
34 1 -30 0
-39 -12 3 0
-19 20 48 0
2 -29 32 0
-68 58 -62 0
37 64 17 0
-38 26 56 0
-15 4 3 0
68 -37 43 0
-22 -12 -26 0
35 12 63 0
-35 70 -68 0
-16 53 18 0
23 43 70 0
9 32 -44 0
30 43 67 0
-62 -22 -20 0
-62 -10 66 0
7 20 -65 0
-7 44 -24 0
43 41 66 0
-10 -13 -27 0
-6 2 -48 0
27 32 5 0
27 6 28 0
38 9 52 0
-61 -17 -67 0
16 -49 -31 0
49 8 25 0
-46 35 11 0
-61 -70 -36 0
32 -64 -58 0
29 -57 32 0
10 -59 -17 0
64 -56 14 0
6 55 -30 0
2 -20 -53 0
-59 33 -63 0
-62 70 -19 0
18 59 -63 0
7 22 23 0
51 5 -1 0
-41 38 67 0
-29 7 -26 0
32 -31 58 0
27 4 19 0
8 61 62 0
-30 15 -48 0
-69 13 -1 0
-65 -63 36 0
12 13 8 0
44 27 -40 0
-53 46 -12 0
-69 -35 50 0
15 60 -70 0
20 -49 -21 0
14 2 69 0
-8 -67 -63 0
43 -36 48 0
22 -45 25 0
12 -61 51 0
58 -25 -43 0
63 54 34 0
-31 -12 -6 0
-52 61 18 0
-55 -13 -25 0
66 65 -25 0
-19 23 60 0
38 28 -9 0
6 -60 -16 0
54 42 36 0
-8 15 -31 0
-39 63 -22 0
-37 -39 17 0
66 -24 -27 0
60 -57 4 0
14 26 57 0
-8 -68 45 0
-14 -65 55 0
-30 1 -9 0
52 59 19 0
54 -5 70 0
-14 46 -9 0
-50 -3 21 0
-33 41 43 0
-44 19 -56 0
-56 27 70 0
-50 52 60 0
46 30 -41 0
-10 5 -60 0
22 -41 -45 0
-65 -2 -18 0
-31 -66 7 0
-5 60 70 0
9 26 47 0
57 -35 -58 0
-6 8 -20 0
10 -17 33 0
-62 -65 -69 0
-54 -64 4 0
-4 27 -38 0
48 -21 1 0
-37 1 -45 0
-45 15 43 0
-59 38 -23 0
67 -59 -17 0
32 -48 -1 0
60 -29 -53 0
-57 -15 -50 0
-1 70 53 0
-28 54 26 0
54 -21 4 0
-39 35 32 0
30 42 67 0
55 -5 38 0
8 -9 69 0
-24 30 -65 0
-37 60 53 0
-24 29 -20 0
-28 58 64 0
18 -21 -70 0
-32 34 52 0
-60 -22 16 0
-57 -15 -68 0
-34 11 67 0
-23 49 -67 0
-68 -20 -23 0
16 53 -58 0
-37 56 -59 0
29 -30 -67 0
-48 -57 27 0
-25 19 -54 0
38 -47 11 0
29 59 54 0
59 17 64 0
-30 -42 57 0
-36 29 -40 0
6 2 48 0
9 6 -63 0
60 -56 -13 0
32 13 -6 0
7 -4 3 0
-69 6 35 0
-34 67 28 0
62 -36 22 0
23 50 68 0
-9 -25 -54 0
9 -26 37 0
-5 -14 49 0
-40 33 4 0
-27 -30 10 0
25 -23 -50 0
28 60 59 0
30 33 -9 0
6 28 -2 0
-54 -19 25 0
-39 -58 -8 0
-1 50 -62 0
-44 69 -23 0
-34 50 63 0
-29 2 -28 0
-36 45 46 0
61 26 -65 0
63 -49 46 0
-63 62 8 0
-4 39 -24 0
-64 -32 -38 0
-67 16 -7 0
-1 41 13 0
-2 30 -26 0
-68 -62 16 0
37 18 -14 0
69 -41 54 0
-57 -63 24 0
-62 -10 19 0
-52 -22 -46 0
-36 14 30 0
63 57 -69 0
33 -17 47 0
-7 -4 -32 0
-2 26 24 0
-25 59 -32 0
57 -31 24 0
11 -32 63 0
-35 -14 37 0
-35 -59 57 0
69 9 32 0
53 62 38 0
46 30 24 0
62 58 -55 0
10 -42 27 0
-65 -11 -57 0
56 -11 -30 0
-4 -20 26 0
-39 58 -56 0
-47 -39 -7 0
40 -61 30 0
59 -34 -38 0
6 24 66 0
-51 53 -61 0
-60 6 54 0
23 41 -46 0
-3 26 41 0
45 29 -67 0
-50 -27 11 0
23 -38 -10 0
-17 -42 10 0
30 -38 69 0
18 33 -41 0
44 -62 2 0
-48 -28 -20 0
-56 -10 -8 0
-56 -48 45 0
5 -29 -63 0
64 7 -39 0
17 22 29 0
-59 -30 -25 0
-65 -57 52 0
49 -30 -41 0
-4 -6 -14 0
-62 24 38 0
-46 -41 -8 0
-6 16 -11 0
-42 -40 36 0
50 2 69 0
59 -8 -21 0
47 -46 -42 0
60 44 57 0
-37 56 -27 0
2 -39 -59 0
-46 8 -15 0
-34 -1 -16 0
-1 8 -12 0
8 -24 7 0
2 26 -49 0
31 38 22 0
-43 70 8 0
30 -39 -31 0
-12 -65 2 0
-60 -7 58 0
13 27 16 0
-49 60 -12 0
45 -61 15 0
58 -29 21 0
-3 30 27 0
-64 -1 70 0
-19 52 68 0
20 -19 -38 0
-51 -35 -10 0
22 -32 51 0
7 -27 -69 0
51 -69 -24 0
-38 29 -21 0
-51 -17 9 0
22 50 -64 0
57 32 -55 0
34 51 -47 0
33 -19 70 0
70 -37 47 0
3 33 32 0
-24 -49 -29 0
49 12 61 0
-52 62 -61 0
-1 21 -47 0
-51 -35 34 0
39 -67 9 0
64 -32 -2 0
6 7 -52 0
-13 11 34 0
2 61 40 0
13 -45 67 0
68 -60 10 0
67 42 54 0
19 17 10 0
1 43 -51 0
-62 -6 61 0
-15 38 -51 0
20 -16 -22 0
-51 18 -55 0
9 -51 -17 0
35 -30 1 0
-24 -59 -20 0
-24 60 59 0
69 2 25 0
-59 -58 8 0
-52 -5 -37 0
-68 -44 -21 0
-29 21 -16 0
-37 -64 -66 0
-9 -11 -69 0
48 -38 20 0
48 -24 -5 0
68 4 -46 0
58 52 56 0
17 -22 -39 0
28 -59 -3 0
4 12 -57 0
22 -52 -1 0
29 23 -53 0
-18 9 61 0
-62 -34 -30 0
-9 24 31 0
-58 -57 39 0
21 11 -48 0
-19 -39 21 0
46 -60 67 0
-14 57 -24 0
-66 1 22 0
