p cnf 70 285
-45 7 -37 0
-52 -9 -29 0
24 -32 -20 0
35 -27 32 0
-40 -24 13 0
-58 49 -34 0
31 48 7 0
55 11 -49 0
15 -17 65 0
-62 50 -46 0
-65 67 -56 0
34 32 -53 0
-59 -28 40 0
67 42 -33 0
-41 24 -50 0
-32 37 -1 0
-41 -9 -40 0
-64 61 -63 0
13 60 20 0
-61 22 -41 0
-9 -11 66 0
1 -45 24 0
-45 -36 -59 0
38 -27 -3 0
11 -25 -44 0
25 -33 10 0
70 49 51 0
16 3 34 0
-34 30 6 0
42 6 -61 0
58 5 -63 0
35 -24 -33 0
-50 -60 65 0
1 -37 43 0
-19 40 25 0
-37 -6 -15 0
17 -40 18 0
-49 43 28 0
47 -50 7 0
-19 -42 30 0
-68 -70 -69 0
-30 15 -61 0
46 -47 36 0
14 -59 -39 0
-49 -11 44 0
48 -55 -53 0
-35 62 54 0
-15 7 -45 0
-32 6 67 0
24 -15 -31 0
11 -2 -64 0
-34 19 -62 0
8 45 3 0
-17 -35 36 0
-5 24 -45 0
-32 25 -45 0
-10 24 -58 0
39 -55 14 0
-58 -50 41 0
29 10 -55 0
-28 -45 -64 0
6 12 -62 0
-32 -67 14 0
-8 39 -59 0
-43 11 4 0
-64 -25 -55 0
-25 -58 -30 0
-30 -14 48 0
46 -19 -23 0
-69 23 51 0
48 37 16 0
37 49 15 0
2 26 -58 0
-5 28 14 0
31 45 70 0
-15 -6 -52 0
-69 33 -10 0
28 18 -7 0
-56 -4 52 0
-50 -55 -54 0
56 -1 54 0
42 -29 66 0
42 -43 -29 0
-62 -17 -57 0
29 37 15 0
-55 26 66 0
16 -45 -21 0
-52 -60 55 0
-47 -24 -13 0
-14 -15 -50 0
-21 41 59 0
67 -12 -60 0
-4 32 -2 0
-37 -42 70 0
52 38 13 0
65 -28 17 0
-29 44 21 0
-70 10 14 0
-69 -63 25 0
40 15 8 0
-48 -19 4 0
-57 -37 -7 0
51 -5 53 0
54 -64 -66 0
-59 -67 2 0
11 -10 -62 0
41 -53 -13 0
9 57 -37 0
28 -59 -66 0
-36 16 10 0
33 -15 -49 0
-39 -51 33 0
47 19 58 0
-59 -56 9 0
24 -44 64 0
-49 10 44 0
-26 65 -69 0
-62 48 16 0
-24 54 55 0
58 42 35 0
-22 17 56 0
11 23 -6 0
-35 -34 -53 0
69 28 12 0
11 25 22 0
-62 -5 60 0
-38 31 61 0
60 52 -9 0
-32 52 -58 0
-59 -38 63 0
-23 -66 -14 0
-14 -8 26 0
-31 4 -34 0
29 67 15 0
30 63 1 0
69 63 12 0
13 35 -56 0
-26 59 17 0
-8 -33 -70 0
56 53 21 0
-31 -30 -35 0
-7 -36 -9 0
30 -16 -57 0
24 56 16 0
-27 -26 1 0
-18 -68 33 0
11 -56 -23 0
-62 7 61 0
-5 66 -2 0
48 47 7 0
1 -64 70 0
49 -58 57 0
43 -60 54 0
-24 3 -62 0
30 -67 -29 0
39 -33 -41 0
51 38 -58 0
43 11 -44 0
-51 4 25 0
-39 69 -67 0
-28 -30 67 0
34 63 -29 0
-54 27 -4 0
-23 -64 60 0
54 49 69 0
-59 66 -40 0
-7 -6 30 0
-52 14 -63 0
20 49 -37 0
31 56 13 0
-18 2 -44 0
17 53 -1 0
17 -45 54 0
-37 -47 -68 0
-63 14 65 0
53 -22 -54 0
-11 57 -35 0
23 67 12 0
-16 -19 10 0
-5 22 56 0
38 -17 -22 0
57 -53 14 0
60 21 7 0
52 7 -32 0
16 -66 48 0
-6 48 27 0
4 -15 -52 0
-24 45 -1 0
-16 -34 21 0
-4 49 42 0
32 -19 -65 0
-3 40 29 0
-57 51 5 0
64 -69 -3 0
-47 -53 -24 0
-66 64 -3 0
-8 35 -49 0
3 -15 66 0
35 60 25 0
-47 48 -51 0
-42 -58 16 0
-61 49 -66 0
55 60 42 0
10 -28 -19 0
53 -16 45 0
51 30 65 0
-65 -58 -44 0
-40 1 49 0
9 -3 36 0
37 12 54 0
-41 -23 29 0
67 15 -6 0
8 -14 16 0
-15 21 -65 0
-56 68 44 0
-20 30 -12 0
23 10 61 0
-27 58 12 0
28 -54 15 0
69 -35 21 0
-13 54 60 0
-43 1 -11 0
20 9 55 0
-37 48 -53 0
-51 -13 -38 0
-7 23 35 0
-28 51 -42 0
-68 28 50 0
34 12 -20 0
43 45 46 0
-5 -39 18 0
54 44 5 0
-23 -68 -2 0
-66 -50 -37 0
-44 -67 -51 0
-68 57 -62 0
43 -64 -4 0
66 -31 -11 0
66 70 38 0
37 8 -10 0
-56 -58 -60 0
-61 10 50 0
53 4 36 0
-64 -56 -13 0
47 -57 6 0
30 -64 27 0
-21 -4 66 0
60 22 -66 0
-56 32 -58 0
53 -12 -23 0
31 -32 17 0
13 29 24 0
21 -22 -55 0
17 21 9 0
-30 -50 6 0
-6 -40 -32 0
25 36 10 0
22 -69 41 0
-4 55 53 0
70 -16 9 0
31 -53 -51 0
17 46 1 0
31 -42 -17 0
-7 44 -12 0
37 51 47 0
-43 22 11 0
15 -62 -57 0
-54 45 30 0
30 8 12 0
-49 16 -55 0
6 -59 51 0
22 15 62 0
-37 -54 -32 0
33 20 -9 0
-17 -43 -13 0
32 66 31 0
-8 56 6 0
-8 -6 -9 0
39 -45 41 0
-22 62 -68 0
55 44 48 0
-5 45 9 0
30 63 44 0
22 31 -6 0
4 -6 -14 0
