p cnf 70 270
51 -53 2 0
-5 -4 64 0
65 -17 -22 0
-25 -37 -29 0
-24 -64 3 0
-58 41 -62 0
32 13 -20 0
1 -67 -30 0
47 22 46 0
-6 -67 23 0
-44 -1 33 0
-70 6 -20 0
13 50 24 0
-38 -68 -40 0
-40 -61 -7 0
33 -37 22 0
-3 11 34 0
22 47 -69 0
15 -54 20 0
-16 20 -15 0
-37 2 18 0
-37 -5 25 0
-39 47 -45 0
-27 19 9 0
-24 43 44 0
-23 -21 -47 0
45 10 39 0
45 -63 10 0
-31 -36 65 0
-2 -35 -14 0
-4 -25 5 0
50 -67 -68 0
-46 -4 -1 0
20 -27 65 0
30 44 33 0
25 40 -10 0
-37 24 -14 0
-65 54 -30 0
31 45 -23 0
14 -22 -41 0
31 63 -61 0
-29 11 -46 0
59 -70 -46 0
-12 42 -62 0
32 69 -2 0
-12 -33 -21 0
23 9 1 0
8 -34 64 0
-19 67 5 0
12 56 24 0
-4 -15 -60 0
-68 -30 24 0
23 -19 4 0
19 -52 -17 0
40 48 -65 0
13 -5 66 0
-53 42 -61 0
20 -49 10 0
55 -58 23 0
-68 16 -52 0
62 -3 -44 0
19 64 52 0
-55 -41 42 0
11 53 -20 0
36 33 -8 0
-70 -29 26 0
22 -57 -45 0
-51 61 68 0
-26 27 2 0
-25 -1 -14 0
-24 -1 -58 0
1 -3 31 0
-49 68 -64 0
-36 15 -32 0
-36 41 -7 0
56 -8 2 0
66 29 -38 0
36 33 54 0
57 -34 -46 0
63 -40 51 0
-66 24 -22 0
62 -30 14 0
48 4 24 0
65 23 42 0
27 37 -34 0
10 11 -64 0
-30 -57 43 0
-64 41 -69 0
-67 16 64 0
38 22 -47 0
51 8 -31 0
4 -14 -67 0
-19 55 -62 0
45 9 27 0
23 -43 55 0
21 -69 -45 0
-27 70 8 0
21 -15 20 0
-5 27 2 0
28 -68 26 0
14 55 10 0
-6 25 47 0
-29 52 -22 0
-55 11 -16 0
54 -3 -12 0
-17 -56 36 0
-21 -2 55 0
-7 14 48 0
14 -44 48 0
19 -58 64 0
-18 -41 60 0
-53 -58 -65 0
52 3 64 0
27 22 36 0
37 9 65 0
53 70 58 0
35 68 62 0
-25 -50 49 0
-41 59 -19 0
59 -22 57 0
37 -6 70 0
52 -5 7 0
3 -45 -20 0
36 43 53 0
60 -37 31 0
-61 -47 23 0
-22 66 -16 0
29 -40 24 0
48 -6 -69 0
1 5 -34 0
-39 51 59 0
49 -39 45 0
13 63 -12 0
46 22 63 0
-46 23 -54 0
-21 -4 -7 0
-61 4 -6 0
68 -37 64 0
59 45 -36 0
19 -55 -62 0
62 58 51 0
55 -58 12 0
63 -69 40 0
3 -47 50 0
-67 -47 -13 0
-6 33 -60 0
31 47 45 0
60 62 65 0
48 -1 38 0
-6 10 -66 0
28 -23 3 0
9 19 -53 0
-62 -43 -48 0
67 9 64 0
31 67 58 0
65 -58 14 0
-20 -18 6 0
-70 13 -69 0
-22 -10 -33 0
-63 62 -16 0
41 -52 -57 0
13 -66 20 0
40 -33 -2 0
54 43 35 0
40 24 39 0
-20 24 60 0
-25 -70 6 0
58 -34 -9 0
-23 -41 19 0
-53 16 56 0
64 -16 -45 0
51 -11 -50 0
41 -34 65 0
-61 -18 24 0
45 62 -68 0
55 69 -52 0
-34 51 -45 0
-26 7 -60 0
55 39 -58 0
-24 31 3 0
-19 13 69 0
34 36 13 0
-36 -20 52 0
15 35 -19 0
61 -26 7 0
-13 45 -33 0
41 39 68 0
-2 34 41 0
23 40 57 0
-42 40 -7 0
-15 -13 -10 0
7 -13 52 0
22 -42 -53 0
9 -46 -41 0
-68 -28 -22 0
-43 -2 -47 0
-18 -55 -58 0
-53 29 10 0
-40 -3 39 0
60 47 58 0
37 -15 -18 0
25 -33 12 0
-5 -68 50 0
60 42 31 0
-46 -28 37 0
-48 39 -10 0
36 43 -45 0
-57 44 -28 0
3 11 -40 0
-32 -6 -9 0
37 -62 43 0
14 -46 -68 0
65 -19 -42 0
-31 -29 -55 0
-38 -67 -20 0
45 2 -8 0
3 -9 35 0
-52 24 -17 0
-47 -56 -26 0
9 -28 45 0
-55 -10 35 0
-22 12 17 0
17 -18 -59 0
24 32 44 0
-13 -17 -35 0
28 -21 41 0
29 -62 38 0
34 7 44 0
-5 -51 -54 0
43 64 -58 0
-33 35 68 0
69 51 9 0
-55 -48 53 0
-27 -4 -33 0
-40 -3 54 0
18 30 -1 0
-13 34 -27 0
68 -7 31 0
-60 -30 47 0
49 -7 -33 0
51 45 -17 0
26 45 -31 0
-53 -52 25 0
-15 39 22 0
15 32 63 0
-35 -18 -19 0
61 32 -68 0
-21 -36 65 0
50 48 10 0
42 -60 -39 0
68 -57 21 0
-58 64 -17 0
24 -55 -31 0
-17 57 -38 0
-38 -40 -1 0
60 51 -63 0
-27 -54 36 0
49 -39 60 0
44 19 13 0
35 -40 -48 0
55 18 -32 0
-62 -37 68 0
8 60 35 0
-25 62 -49 0
34 -60 -10 0
36 -50 19 0
50 -34 -38 0
70 39 -59 0
-53 59 61 0
49 36 14 0
