p cnf 70 280
31 -36 -59 0
62 14 10 0
28 68 -4 0
-49 28 -3 0
-42 48 -69 0
-31 -67 28 0
-21 -34 60 0
-33 9 -21 0
-36 63 -54 0
43 56 14 0
56 -23 30 0
-40 22 -28 0
-66 67 19 0
64 32 -61 0
9 62 64 0
-33 55 46 0
62 -10 -18 0
67 -6 47 0
-28 12 -8 0
-33 -14 -7 0
-40 -57 19 0
-17 1 7 0
-55 34 41 0
-62 -11 -15 0
61 -29 -11 0
24 -18 -48 0
-70 28 -10 0
-62 70 56 0
-70 48 34 0
38 12 19 0
59 57 -27 0
-36 43 -42 0
-26 -65 -24 0
-49 55 -24 0
-40 -19 22 0
63 -12 -69 0
-45 28 -13 0
54 -65 26 0
16 -37 -23 0
-45 -8 -47 0
-26 12 30 0
9 -63 -36 0
-27 -2 -3 0
51 -17 -41 0
-12 -67 -10 0
-20 43 63 0
64 11 -28 0
-66 54 -15 0
-29 9 3 0
-14 8 53 0
7 23 65 0
29 -10 -68 0
-38 60 67 0
41 -5 -55 0
-68 16 -42 0
-42 65 -41 0
64 23 -18 0
27 19 -2 0
41 19 18 0
29 -64 62 0
59 -61 2 0
-29 -12 38 0
-28 -8 -34 0
-21 46 -55 0
-64 -57 -7 0
-38 -66 59 0
-36 -59 47 0
-43 55 16 0
8 -11 9 0
-1 24 -6 0
-63 6 52 0
60 26 -6 0
19 10 -26 0
40 48 32 0
22 -61 15 0
-66 -1 31 0
33 -23 -4 0
54 53 -34 0
3 5 -23 0
-57 7 -24 0
2 -49 5 0
16 34 -67 0
38 -16 65 0
-65 7 24 0
36 -47 53 0
46 -39 -33 0
61 53 44 0
-40 -68 -62 0
-65 40 67 0
-52 29 43 0
-38 -6 1 0
66 48 34 0
35 -30 42 0
54 46 -27 0
-70 60 -32 0
-25 -21 -39 0
69 38 -47 0
-31 -24 45 0
-36 -69 -28 0
-63 -40 -32 0
-29 -26 63 0
-68 -56 50 0
-6 3 -40 0
-28 -31 -36 0
22 35 -1 0
48 54 -55 0
23 11 -40 0
7 52 8 0
-66 -18 -44 0
-56 62 40 0
42 -12 15 0
44 -25 -8 0
-46 -32 -27 0
-39 14 1 0
31 -69 10 0
51 17 -40 0
-39 25 55 0
69 -50 22 0
34 51 -11 0
3 40 7 0
-20 -55 -26 0
44 -66 33 0
20 -7 -38 0
-6 -27 12 0
6 53 9 0
10 34 70 0
-11 3 54 0
-37 60 -47 0
-41 40 -52 0
-36 53 -22 0
-45 40 -35 0
-60 -27 23 0
55 -10 51 0
-17 10 -14 0
-18 27 -46 0
5 43 23 0
-27 -39 -1 0
68 -57 20 0
-47 -1 -7 0
37 36 -21 0
-9 32 -35 0
-8 -30 -13 0
-5 -65 23 0
12 27 48 0
-14 2 67 0
-57 -7 49 0
10 -64 -48 0
-18 36 -37 0
5 55 -41 0
24 20 52 0
-66 20 52 0
7 -20 51 0
50 31 30 0
-55 31 15 0
66 -44 -49 0
-66 27 11 0
-32 -16 25 0
-39 -62 70 0
1 -65 45 0
-40 -58 -27 0
-62 49 -36 0
31 55 6 0
18 27 -7 0
35 60 -3 0
-59 -47 8 0
14 -56 -55 0
-25 19 69 0
47 -56 -63 0
-37 47 27 0
32 46 -54 0
29 70 3 0
-48 22 -5 0
48 11 -47 0
15 -10 -58 0
-6 -46 15 0
60 36 -27 0
25 -45 -49 0
8 -33 45 0
-28 -24 -22 0
-33 -45 17 0
-1 10 -66 0
-22 -18 -26 0
-31 11 7 0
-61 26 57 0
22 -62 -5 0
-18 -37 -31 0
42 35 -66 0
66 38 -14 0
5 -67 -46 0
-43 -56 -31 0
-34 -47 -3 0
51 59 -22 0
-58 14 -30 0
-33 -29 -45 0
-2 -54 -33 0
-30 -10 -7 0
7 34 -12 0
7 -48 -30 0
-67 22 24 0
19 -33 -65 0
-35 -49 5 0
-28 15 39 0
16 9 70 0
69 -41 18 0
38 57 49 0
58 55 -13 0
-24 9 -61 0
27 -53 -65 0
45 -32 46 0
-43 23 -64 0
-55 -39 66 0
-69 -2 -11 0
-26 36 -52 0
-5 40 -60 0
-53 36 10 0
-14 -25 -34 0
-70 7 38 0
51 50 -45 0
70 -28 -40 0
57 -37 -31 0
-70 -64 -45 0
-50 43 -12 0
-8 -13 -45 0
-43 36 -25 0
25 48 17 0
-21 16 -45 0
-20 -11 67 0
19 17 13 0
-42 -59 6 0
4 49 -23 0
-15 66 -26 0
-20 11 -7 0
-56 -26 -52 0
39 47 35 0
36 -34 65 0
31 -56 -40 0
-53 -31 -54 0
26 31 25 0
23 -59 12 0
33 29 -35 0
55 32 27 0
59 65 -14 0
58 -18 -25 0
-17 -68 12 0
-21 -48 47 0
7 20 53 0
17 -36 -57 0
-62 -36 43 0
-25 -38 -70 0
40 -39 -10 0
13 -33 12 0
19 65 -22 0
-47 -33 22 0
-31 60 68 0
-39 -49 65 0
-63 -56 64 0
-34 -66 -25 0
55 29 -17 0
-43 -70 -49 0
-39 -25 -15 0
53 -59 -14 0
-64 1 -15 0
52 47 67 0
4 -14 -47 0
35 -4 -42 0
-33 -15 51 0
10 40 -67 0
21 36 10 0
-57 27 -29 0
-57 2 -52 0
-9 30 15 0
24 -12 -49 0
-3 57 -4 0
15 54 -42 0
8 -37 -16 0
-22 20 -66 0
-54 -36 -43 0
-34 31 41 0
33 -7 -14 0
-28 -44 35 0
