p cnf 70 300
26 18 -5 0
-18 -35 7 0
9 42 54 0
28 12 -32 0
41 -40 -57 0
-28 6 49 0
-10 14 -6 0
46 40 30 0
-43 -46 -44 0
-43 -13 -66 0
-10 70 46 0
64 -67 -36 0
32 41 1 0
9 -13 29 0
-10 5 53 0
7 -17 -1 0
2 -43 -36 0
15 -65 1 0
-49 4 -44 0
29 -68 39 0
23 54 1 0
23 56 50 0
58 -70 57 0
-6 -8 29 0
-1 -2 -69 0
22 -53 -15 0
-2 55 -40 0
-35 -24 -15 0
38 19 -45 0
-31 -61 66 0
-18 -65 48 0
-44 4 63 0
-6 11 -30 0
-13 6 63 0
-19 -14 -47 0
7 22 5 0
43 -28 -46 0
-34 -19 16 0
42 66 -16 0
-27 -49 -36 0
-54 26 -48 0
69 20 35 0
29 4 22 0
54 -57 -8 0
33 -54 -56 0
-49 -68 27 0
-20 7 28 0
-48 -15 37 0
-45 46 38 0
54 70 -8 0
-12 30 -49 0
-50 52 61 0
-70 22 54 0
23 -27 -40 0
55 -11 -20 0
10 -1 -9 0
45 21 -46 0
-14 -50 3 0
15 43 -13 0
17 -5 7 0
30 -34 13 0
4 -14 -53 0
-3 7 42 0
-26 -23 11 0
52 38 37 0
43 56 64 0
25 -69 -16 0
22 61 46 0
-18 30 1 0
-55 64 -18 0
42 8 64 0
32 8 -1 0
-21 -3 -62 0
-49 -48 -29 0
-39 6 23 0
53 -38 -26 0
38 -26 -3 0
53 41 -42 0
-15 -64 25 0
24 -2 30 0
30 -56 17 0
68 51 -3 0
-15 18 -48 0
-70 52 -42 0
13 18 -47 0
42 -61 -44 0
-33 46 -57 0
43 -61 20 0
-40 41 -38 0
26 36 -56 0
52 -22 -29 0
-66 22 -70 0
32 -60 67 0
22 69 -58 0
10 -19 -1 0
52 -21 67 0
41 -53 -44 0
-50 9 -36 0
30 -59 -52 0
-46 -1 -33 0
58 -9 54 0
33 -67 -1 0
-68 70 -28 0
-8 51 -22 0
-53 41 39 0
-15 63 -39 0
-61 -42 -2 0
26 42 33 0
6 -26 -64 0
-56 54 53 0
-67 17 70 0
39 5 -69 0
22 25 32 0
-25 9 -56 0
23 36 20 0
58 42 3 0
40 13 -62 0
-15 56 -38 0
-54 -30 56 0
-36 -42 -61 0
22 36 3 0
-11 -52 5 0
-5 -13 3 0
4 33 36 0
32 10 28 0
-9 64 28 0
-31 51 -61 0
39 -38 49 0
-7 3 -44 0
-10 47 -8 0
58 -52 5 0
-16 -70 -10 0
35 21 -59 0
-66 -22 33 0
39 47 1 0
-67 -17 37 0
55 -17 -12 0
-54 49 11 0
-45 -59 -63 0
46 -45 60 0
-27 40 22 0
47 -52 6 0
-70 47 -53 0
-20 -15 34 0
66 -38 -1 0
-19 -10 -43 0
-45 32 9 0
-60 4 31 0
66 -35 11 0
-26 12 -41 0
-25 16 -36 0
-2 18 -26 0
-65 1 4 0
50 -48 -61 0
48 1 27 0
16 -70 29 0
-63 -35 31 0
31 -53 13 0
44 -14 -65 0
55 27 42 0
-41 -30 56 0
-13 39 48 0
64 7 -14 0
-63 -46 50 0
-20 -69 39 0
-17 -36 25 0
-56 3 -67 0
12 10 -15 0
39 -66 -68 0
69 -62 -64 0
65 -22 -27 0
-46 -6 36 0
-9 -44 -48 0
-54 -16 5 0
40 -10 -37 0
18 47 42 0
-64 41 -54 0
-49 23 -37 0
-32 -26 -29 0
-6 -69 -67 0
60 -1 10 0
29 59 -53 0
63 35 -45 0
50 -4 -52 0
17 -3 -33 0
-41 -57 -28 0
18 -49 30 0
20 48 21 0
-37 -16 46 0
1 -45 44 0
63 60 -22 0
54 51 30 0
61 -54 -23 0
-61 23 -50 0
17 33 52 0
56 50 -60 0
61 29 -44 0
34 -59 32 0
-25 31 43 0
7 31 63 0
-14 -27 -55 0
6 -61 9 0
21 58 17 0
1 -48 19 0
-3 -9 23 0
1 65 31 0
22 -70 -43 0
10 66 -45 0
-30 -38 61 0
-21 -26 17 0
18 -63 -17 0
-21 -34 46 0
67 -64 -17 0
62 -32 48 0
37 10 -16 0
-34 -2 38 0
7 -65 -49 0
-42 -47 -55 0
-66 43 63 0
26 -21 35 0
-38 -3 68 0
-43 -46 18 0
18 56 -8 0
-1 64 -34 0
40 -65 -70 0
18 41 -36 0
65 -5 37 0
-18 52 -58 0
-64 -57 -38 0
9 -54 -48 0
50 -45 -12 0
47 -59 -25 0
-13 -3 24 0
57 -6 49 0
18 17 49 0
-28 -57 67 0
-33 -54 -28 0
27 -51 -54 0
-54 13 -24 0
-38 23 46 0
8 -57 35 0
38 25 -31 0
66 -26 7 0
22 -49 -29 0
20 -36 -44 0
-12 66 -18 0
35 -50 -36 0
1 48 -4 0
-16 -39 -54 0
-54 -55 45 0
-10 36 -34 0
-4 -34 -44 0
-41 33 -9 0
1 52 28 0
29 38 -22 0
-65 -26 -47 0
-45 46 -30 0
-68 19 39 0
-29 -19 -65 0
32 22 -31 0
38 2 -39 0
-40 -15 -14 0
-41 -58 -15 0
-53 -5 -47 0
26 -7 10 0
-33 -49 4 0
33 -56 -20 0
-4 26 -61 0
8 -11 40 0
-7 -12 -22 0
-55 45 37 0
63 -26 -51 0
-65 -24 -51 0
-42 -19 -18 0
25 24 -32 0
-51 47 70 0
31 60 3 0
-58 -23 -39 0
-68 37 -29 0
24 -63 56 0
19 43 14 0
-69 43 -14 0
-2 61 -47 0
-60 49 -53 0
-39 5 -64 0
52 -69 70 0
-37 -64 56 0
-32 56 51 0
-6 8 42 0
55 -62 -51 0
10 25 18 0
-39 -31 -59 0
-19 -69 50 0
-31 38 69 0
-59 -42 -37 0
32 21 58 0
-66 -7 -10 0
55 -49 69 0
-51 -66 15 0
51 -2 -40 0
