p cnf 70 260
11 -42 62 0
-22 -39 58 0
-6 41 -61 0
65 1 37 0
38 -54 -43 0
-47 -66 58 0
-19 -58 55 0
69 -39 41 0
-41 58 -8 0
20 15 2 0
-8 -27 -9 0
57 -58 -15 0
-49 31 13 0
30 36 -61 0
-63 -33 -58 0
4 69 -18 0
66 68 6 0
-51 -11 -63 0
-56 -49 60 0
19 -40 -66 0
46 35 -70 0
50 33 29 0
-3 4 -23 0
57 34 -12 0
-22 -25 -11 0
-21 24 -67 0
48 4 -23 0
6 10 -16 0
-47 -14 -4 0
3 -1 46 0
15 68 -54 0
-23 -21 -68 0
60 22 -65 0
32 5 8 0
-50 -7 -43 0
-5 -2 -12 0
-2 -18 -67 0
7 -21 -2 0
-1 32 35 0
-39 17 -51 0
68 61 -53 0
64 33 23 0
51 60 25 0
-23 48 62 0
-23 62 -42 0
52 46 -43 0
47 38 -43 0
29 -3 26 0
-40 -4 -69 0
59 16 53 0
-14 63 -2 0
39 -67 -18 0
-35 -45 66 0
-64 -6 -34 0
-23 70 53 0
14 33 -9 0
13 26 -9 0
-7 3 -61 0
-11 -34 -17 0
69 63 25 0
-21 -66 -56 0
-6 7 51 0
17 -2 -55 0
-30 37 19 0
-42 17 -23 0
-70 65 -45 0
-69 32 49 0
53 -49 -28 0
9 17 53 0
8 -53 -64 0
33 68 18 0
-65 -57 51 0
-6 -10 49 0
-14 -61 27 0
-14 20 -45 0
-45 30 -59 0
-30 -42 -7 0
-49 35 64 0
-67 -40 -41 0
56 -49 -19 0
-51 -31 -60 0
17 28 -70 0
-43 -46 -45 0
-43 26 -37 0
-63 32 58 0
-15 56 -55 0
-24 66 9 0
-57 -25 -33 0
10 -34 -61 0
59 51 57 0
-61 -48 -30 0
12 19 -35 0
62 -32 -51 0
-39 -41 21 0
-43 -15 64 0
41 31 -53 0
-1 22 -26 0
35 46 -57 0
54 -24 13 0
-46 19 -35 0
36 55 -67 0
-50 8 30 0
10 -35 42 0
3 -36 -61 0
-36 2 8 0
-68 55 37 0
23 -55 26 0
66 1 38 0
62 2 -48 0
63 28 46 0
1 -33 35 0
-17 13 15 0
61 -50 33 0
-39 -58 40 0
50 3 34 0
12 59 -5 0
-49 11 38 0
51 -44 37 0
-36 9 -67 0
30 26 -47 0
-34 44 24 0
61 19 49 0
-20 -62 7 0
-54 -2 36 0
30 -59 54 0
8 58 70 0
-49 12 -43 0
-8 -60 3 0
-38 -39 -47 0
-61 -64 67 0
-34 50 -10 0
40 66 1 0
62 -57 -9 0
-63 16 -21 0
65 -1 28 0
6 28 12 0
-59 42 38 0
-17 -5 14 0
21 -7 -51 0
60 8 39 0
-5 45 60 0
46 -22 -8 0
3 12 4 0
-42 -58 -47 0
-7 -70 35 0
-32 -9 -2 0
43 34 -19 0
-33 22 -28 0
44 63 -27 0
51 38 -67 0
31 23 -42 0
-4 -20 -28 0
-58 9 43 0
32 63 -12 0
-40 53 69 0
53 48 70 0
70 55 68 0
-46 67 1 0
-28 -3 -43 0
59 11 12 0
23 32 24 0
40 -54 -26 0
47 11 -66 0
-13 -29 -31 0
64 -30 -67 0
-12 17 -67 0
-11 6 18 0
18 36 37 0
-60 -14 54 0
50 -41 -2 0
38 -27 -62 0
-56 -4 -18 0
37 -46 18 0
20 -24 -8 0
59 35 29 0
-14 38 46 0
-3 25 58 0
-56 6 -36 0
60 -22 -5 0
36 25 -29 0
-36 -1 27 0
40 -42 67 0
-18 -33 54 0
-35 -67 51 0
59 -2 -20 0
-7 42 -65 0
-8 -50 11 0
11 40 -67 0
49 64 50 0
-13 7 62 0
3 32 -51 0
37 -21 10 0
10 -54 36 0
32 27 60 0
61 5 -7 0
-63 -24 -45 0
-33 11 17 0
-40 43 14 0
-52 24 5 0
29 -21 41 0
41 -67 4 0
-41 48 14 0
66 -41 -15 0
-44 -22 41 0
-56 -22 11 0
-20 34 -1 0
-20 -58 15 0
51 -15 -39 0
-62 -43 -63 0
-69 43 26 0
26 -56 3 0
-49 50 -13 0
-47 6 42 0
-6 49 35 0
-48 47 -64 0
-10 36 12 0
-6 -63 53 0
-28 63 39 0
13 -60 -19 0
58 -62 21 0
-63 58 -37 0
-38 -43 29 0
-40 -52 -37 0
-43 -46 -4 0
-7 61 -50 0
-16 10 48 0
-61 23 -11 0
-65 51 15 0
7 63 46 0
-56 17 -54 0
-62 -61 -42 0
70 -41 7 0
-66 -45 40 0
31 -18 58 0
-30 -36 61 0
-44 53 40 0
-33 1 -55 0
-61 17 67 0
1 61 51 0
62 -14 10 0
-66 -24 35 0
5 -34 13 0
24 -38 -1 0
-33 -9 -63 0
30 21 -34 0
-9 28 45 0
36 25 70 0
50 -25 -16 0
43 -67 51 0
-43 -25 13 0
50 -51 -55 0
-49 -35 -14 0
-31 23 6 0
30 -7 -67 0
2 53 -32 0
-62 50 25 0
70 16 -9 0
33 -6 17 0
31 -7 -41 0
-37 7 -12 0
