p cnf 70 310
44 -6 21 0
14 32 8 0
-5 20 -12 0
-48 -24 37 0
-45 -15 -30 0
-16 18 20 0
-11 -21 41 0
21 -29 -32 0
49 -33 1 0
39 -70 62 0
9 -17 31 0
-16 -26 -68 0
67 53 3 0
-31 53 27 0
13 -70 -5 0
63 37 -34 0
-47 42 -16 0
-64 50 47 0
4 27 23 0
-45 -9 -55 0
5 1 2 0
-44 -53 -39 0
45 -41 -11 0
-67 32 1 0
-20 64 7 0
13 -48 -62 0
11 -30 -2 0
7 -56 -4 0
-11 34 33 0
28 -53 -54 0
65 -19 52 0
64 24 -19 0
-53 19 -30 0
-38 -5 -68 0
-17 22 -12 0
-13 60 22 0
13 6 39 0
-40 -16 14 0
-21 -69 63 0
-44 31 56 0
-60 -38 -3 0
-30 13 56 0
-19 22 33 0
-26 4 69 0
7 40 -2 0
4 3 25 0
8 -26 -32 0
30 44 -38 0
21 1 6 0
42 -14 -48 0
26 40 27 0
-65 -50 -44 0
-70 28 -30 0
5 18 -20 0
-41 9 7 0
-33 -54 39 0
34 65 3 0
-56 60 -10 0
-28 -53 -43 0
-57 49 -53 0
-21 -50 35 0
58 -51 -28 0
-14 47 50 0
61 -16 -50 0
5 33 3 0
-26 -37 -23 0
17 -44 -19 0
-58 -5 -54 0
26 -53 -19 0
69 48 63 0
-19 -28 7 0
57 7 15 0
-69 -16 -15 0
-21 -46 -15 0
-69 -40 -37 0
64 53 -2 0
-37 -10 48 0
47 -28 10 0
-68 32 34 0
-12 5 39 0
38 -37 35 0
-30 9 44 0
-51 47 -45 0
5 9 -24 0
62 -36 -19 0
13 48 35 0
11 49 -70 0
-51 -36 -16 0
64 39 -22 0
20 34 -57 0
-1 5 26 0
28 17 -66 0
-46 9 6 0
62 36 44 0
-65 -53 -15 0
6 41 -37 0
-9 63 44 0
42 54 36 0
23 62 40 0
16 18 -29 0
-23 59 3 0
45 -55 -59 0
-17 -48 34 0
-48 -11 -45 0
36 -37 -13 0
15 4 20 0
-26 37 -60 0
57 -55 24 0
29 -2 -41 0
10 42 36 0
2 -58 -5 0
34 -50 -49 0
50 4 41 0
48 -4 -30 0
58 -44 -70 0
-65 18 51 0
54 -66 42 0
-45 -61 12 0
-29 35 32 0
-70 -30 6 0
-56 4 -60 0
18 -57 -11 0
-9 3 -56 0
44 -1 3 0
15 54 37 0
-14 -61 28 0
-32 44 8 0
-3 -64 35 0
-46 -8 28 0
24 -36 -43 0
15 -7 -41 0
-70 -55 -69 0
62 53 36 0
-61 69 -43 0
-35 48 -30 0
-64 59 -9 0
25 61 65 0
-16 -43 4 0
-65 -70 29 0
69 -46 60 0
3 29 33 0
-62 -26 38 0
5 51 -46 0
-21 -6 28 0
-62 22 -35 0
-64 -67 -66 0
51 32 -50 0
-14 -5 20 0
-11 -69 -4 0
19 29 70 0
32 39 -9 0
-25 54 -35 0
30 37 -16 0
-49 56 37 0
19 61 46 0
64 -57 27 0
-47 -5 -46 0
-58 30 39 0
-59 -48 58 0
-62 -12 59 0
-53 -45 54 0
-53 -3 -1 0
27 -9 -13 0
66 59 -39 0
-60 -63 -50 0
4 23 25 0
-67 9 -51 0
19 -14 -65 0
-23 27 45 0
-3 -44 40 0
-37 39 25 0
-1 17 -13 0
-15 51 68 0
31 56 -22 0
-54 49 -57 0
7 -64 -56 0
-53 4 -56 0
-51 14 44 0
-68 -21 8 0
6 -50 -10 0
66 -1 -37 0
24 67 -23 0
1 -45 16 0
-3 -70 -69 0
-52 4 -36 0
6 -68 -37 0
45 61 42 0
-28 -22 -51 0
60 13 27 0
27 33 -7 0
-59 -66 -49 0
50 -14 -22 0
-25 47 -61 0
9 -50 19 0
-37 26 29 0
31 59 4 0
-47 19 -64 0
-31 21 -30 0
-67 -59 -3 0
-15 -28 -54 0
68 -48 -39 0
33 63 -10 0
7 63 33 0
5 -29 37 0
18 57 -17 0
-21 -41 -15 0
-40 37 50 0
7 -26 -53 0
-61 12 -70 0
14 -17 -32 0
13 -18 -5 0
-39 -52 -69 0
17 -30 47 0
-22 34 26 0
68 10 -2 0
54 19 45 0
-49 40 -63 0
12 11 26 0
-9 67 40 0
12 43 -1 0
-44 2 -4 0
66 18 -54 0
-15 -67 -59 0
30 -27 56 0
15 32 -40 0
-45 62 37 0
-40 54 -27 0
-29 -50 18 0
-34 -39 20 0
-27 66 70 0
9 -12 28 0
34 64 48 0
-33 22 35 0
49 13 -9 0
-22 -9 -24 0
-42 15 -54 0
-1 -7 -17 0
31 21 23 0
20 14 28 0
28 19 -30 0
-53 -8 10 0
-41 -35 -20 0
-40 60 53 0
-8 -56 42 0
51 37 -58 0
15 -43 13 0
64 6 -34 0
-22 4 -16 0
-43 -20 57 0
-20 17 32 0
70 -26 -49 0
27 35 -49 0
-67 -42 -4 0
65 53 -23 0
-19 64 -17 0
-51 38 -10 0
-17 -30 -59 0
-70 37 -17 0
-15 -6 29 0
-6 28 -39 0
-70 -17 52 0
-18 55 45 0
33 -25 16 0
68 -60 11 0
67 39 -41 0
31 -47 -30 0
29 52 40 0
-31 43 -55 0
-60 -50 20 0
2 -45 25 0
7 -46 -70 0
43 1 34 0
6 68 69 0
-34 -24 -48 0
53 -26 -56 0
-61 -40 28 0
35 -61 36 0
-40 -3 41 0
35 23 60 0
57 -12 4 0
64 -43 6 0
-13 -15 -18 0
-36 27 -38 0
38 20 26 0
66 48 70 0
-33 -35 -48 0
-59 67 -69 0
52 31 37 0
62 -12 45 0
-42 -13 -70 0
32 41 -67 0
-25 20 21 0
-6 -53 52 0
-50 -62 -48 0
-14 -67 -26 0
7 63 -43 0
2 -3 -11 0
-19 41 -63 0
-13 -35 -42 0
-18 22 21 0
21 -47 26 0
51 69 -39 0
62 3 -49 0
16 17 -55 0
-50 -16 30 0
-20 30 -8 0
-41 68 33 0
-60 -17 -13 0
-48 42 -27 0
-49 52 -23 0
