p cnf 70 310
21 -1 -27 0
27 49 -2 0
15 -13 31 0
61 -16 31 0
-46 14 26 0
70 -26 8 0
29 -49 -17 0
-59 -31 -51 0
42 -56 -55 0
-58 1 -35 0
28 -3 48 0
-66 8 65 0
-59 47 -68 0
33 -22 -68 0
-64 -33 68 0
-58 -50 -23 0
7 48 -63 0
-23 -28 -22 0
-50 31 -9 0
30 58 35 0
-7 70 20 0
18 3 -8 0
22 57 -25 0
-60 63 23 0
4 -67 52 0
-42 -7 -3 0
-59 17 47 0
46 22 4 0
-34 -45 13 0
-51 7 -11 0
-25 10 44 0
11 12 -70 0
-30 35 25 0
-9 -56 -4 0
54 36 -12 0
56 40 -39 0
-12 -1 2 0
13 -16 -9 0
-35 -32 20 0
-12 31 -64 0
-51 -53 54 0
-23 66 -52 0
-43 59 -11 0
66 -22 56 0
-3 -33 7 0
-26 62 50 0
14 -45 60 0
-62 -65 -1 0
23 9 24 0
-49 50 -37 0
-16 -67 12 0
-68 39 33 0
-57 60 51 0
33 41 -31 0
4 9 22 0
5 38 -42 0
-42 63 52 0
54 5 -37 0
68 -4 -3 0
-26 -54 -49 0
3 47 -22 0
40 -19 -7 0
67 -31 55 0
-50 15 -26 0
57 -23 56 0
19 45 58 0
1 -57 54 0
7 -2 43 0
42 -27 -49 0
-25 -10 4 0
-28 52 13 0
-5 27 51 0
38 -64 39 0
69 -66 -7 0
69 -66 36 0
25 -5 -41 0
9 10 7 0
-33 68 63 0
-44 -36 -3 0
4 -18 30 0
-53 -56 28 0
-12 -24 -47 0
-67 -63 25 0
63 67 -57 0
-61 46 28 0
-22 -29 18 0
-28 11 18 0
-15 62 32 0
27 -61 -57 0
55 -41 15 0
8 -47 -67 0
57 -49 17 0
-22 -28 -61 0
65 4 29 0
-4 8 70 0
-64 44 -69 0
-4 34 -69 0
-59 21 20 0
12 29 31 0
-19 14 -2 0
68 -3 -60 0
24 -22 -41 0
12 -24 55 0
26 -1 59 0
64 -20 37 0
-69 44 36 0
-53 -50 -65 0
42 54 -47 0
-14 -31 -28 0
-60 36 -37 0
-18 61 8 0
56 -4 59 0
-1 50 -19 0
43 4 -59 0
41 55 -4 0
4 -53 61 0
-38 27 -33 0
-38 -20 -10 0
54 20 39 0
-41 -1 -57 0
-27 6 -61 0
10 16 -5 0
58 42 9 0
-8 -17 23 0
11 -67 -19 0
-25 58 70 0
70 21 6 0
59 -4 -56 0
-43 33 -6 0
-45 -16 -23 0
-26 -33 -42 0
31 -17 37 0
36 -35 -21 0
-62 44 28 0
21 55 44 0
-17 15 14 0
-44 -28 -62 0
49 -5 -50 0
67 -15 60 0
8 61 37 0
12 53 21 0
-54 -23 27 0
59 -63 52 0
43 -26 6 0
43 28 -2 0
11 -1 47 0
43 -17 59 0
-9 -23 20 0
-62 -16 -51 0
-70 61 -10 0
41 49 -35 0
46 32 26 0
-63 16 7 0
41 -54 -16 0
-66 1 42 0
-69 -11 -1 0
-4 -7 56 0
-27 -6 -47 0
16 5 64 0
-65 18 55 0
13 5 23 0
-66 61 13 0
16 -45 -25 0
-9 8 -19 0
13 55 45 0
-37 -32 -16 0
-10 -25 4 0
-39 -35 -16 0
-49 -68 54 0
-30 -25 9 0
-55 17 -42 0
-44 -39 50 0
-27 66 69 0
43 50 29 0
8 -59 38 0
-21 43 53 0
9 -1 -47 0
-25 18 -54 0
-53 -32 31 0
-1 -23 38 0
64 -31 5 0
28 -30 -70 0
45 -18 65 0
69 54 41 0
5 -45 -40 0
-32 12 -63 0
-10 69 -11 0
-60 -34 64 0
67 41 42 0
41 16 -47 0
-59 38 -14 0
-32 27 57 0
-42 47 -67 0
52 -4 60 0
-69 -60 5 0
-19 13 -68 0
-46 47 -63 0
10 45 -51 0
-59 60 -66 0
33 44 -11 0
16 10 -19 0
-56 -61 69 0
-48 32 -25 0
30 64 -24 0
1 66 52 0
52 56 -31 0
33 -69 23 0
55 27 70 0
39 5 -43 0
-60 -65 37 0
34 -40 -70 0
-27 -15 36 0
68 63 -14 0
-53 -17 -32 0
37 -29 44 0
-39 -35 -38 0
46 42 37 0
16 10 8 0
-17 24 -56 0
-38 -27 65 0
-58 -38 15 0
-12 37 -54 0
22 -65 7 0
70 -5 30 0
6 61 12 0
-45 40 -25 0
47 -57 23 0
-37 16 -25 0
23 -39 -70 0
53 34 -59 0
36 -14 -65 0
16 18 -22 0
41 14 27 0
-58 -46 38 0
-61 18 -4 0
2 -50 36 0
16 63 -25 0
35 -13 30 0
56 3 9 0
-33 -26 -50 0
41 38 -3 0
-52 -24 56 0
25 -62 12 0
-24 54 40 0
7 23 -54 0
26 -56 -10 0
-20 -63 -55 0
-67 -11 -6 0
41 40 46 0
-56 -47 -23 0
-25 53 66 0
56 43 64 0
52 47 -69 0
16 -35 -63 0
-69 -9 64 0
-25 34 9 0
-45 -31 11 0
64 41 62 0
60 7 65 0
-17 -43 -38 0
-16 -51 -21 0
28 36 61 0
25 31 58 0
65 34 -22 0
-56 -48 7 0
4 -26 41 0
30 -11 25 0
-3 -18 25 0
-29 10 -39 0
6 24 -67 0
-1 60 5 0
-66 -64 -31 0
8 -48 -57 0
23 63 -52 0
-47 -54 62 0
-42 19 8 0
-19 31 -45 0
-59 -5 -27 0
57 16 -35 0
48 -28 -8 0
67 -59 -4 0
59 2 -48 0
-53 7 -8 0
-25 40 -55 0
64 -31 -46 0
46 -62 -45 0
48 -14 32 0
23 -59 1 0
-46 -14 -56 0
70 -33 -42 0
58 51 -14 0
-66 11 20 0
38 44 58 0
69 -2 -19 0
59 -70 10 0
-48 -35 36 0
46 41 -66 0
30 60 68 0
34 30 -6 0
46 -61 6 0
47 31 15 0
-38 60 13 0
-1 -40 -49 0
-61 -60 -21 0
-67 -33 62 0
42 46 62 0
-17 -50 -26 0
23 42 -49 0
20 -23 -37 0
-26 53 30 0
