p cnf 70 305
-36 -23 -8 0
-57 -21 -64 0
-17 13 -64 0
-49 -35 -5 0
25 -11 35 0
-65 -36 -61 0
40 33 68 0
-54 36 46 0
-30 -14 13 0
-14 49 65 0
53 -51 -68 0
-35 69 -25 0
30 -38 -58 0
-22 -1 8 0
-55 -48 -38 0
3 61 50 0
67 -45 -52 0
56 -38 68 0
-2 -28 -36 0
-47 -40 -15 0
-20 -32 -42 0
-70 -63 -14 0
45 39 29 0
-5 -45 66 0
-61 -1 27 0
-55 37 -53 0
60 67 69 0
-21 -13 -69 0
-28 -35 47 0
-47 -70 43 0
26 6 2 0
-13 -42 19 0
64 36 -37 0
-1 52 -41 0
-30 46 32 0
23 50 -37 0
-26 -13 14 0
-64 -58 -30 0
-5 -52 8 0
-19 15 11 0
-60 -51 -37 0
25 -34 52 0
42 -36 -58 0
-28 69 -24 0
-37 19 -62 0
-66 -43 61 0
68 7 44 0
-42 70 67 0
63 -44 61 0
-60 -30 31 0
-15 -50 48 0
22 -52 -28 0
62 12 8 0
54 61 52 0
-6 65 36 0
45 -46 -2 0
61 -58 21 0
31 -26 -49 0
36 -5 -12 0
8 -47 -38 0
-64 -25 -13 0
55 -64 -17 0
34 -41 -38 0
-39 52 -21 0
67 61 -31 0
2 46 10 0
-20 -15 -3 0
-34 3 17 0
-32 51 40 0
-49 -17 23 0
-59 44 -35 0
61 -34 27 0
17 43 -66 0
32 -16 2 0
50 -15 -44 0
-56 -55 54 0
36 66 16 0
-63 66 -54 0
19 6 -36 0
51 61 -11 0
-45 3 -29 0
7 53 61 0
-15 -32 -67 0
47 -37 -28 0
-36 -46 63 0
31 -62 -6 0
51 -34 65 0
18 36 -54 0
26 -11 38 0
-5 23 -11 0
-44 30 -65 0
6 -10 57 0
66 -28 -68 0
35 -52 49 0
21 -58 -52 0
24 33 20 0
29 50 60 0
-9 31 67 0
-41 -19 -14 0
-54 -53 -43 0
10 44 46 0
-54 -16 -44 0
-29 35 59 0
-54 -49 -65 0
-69 52 6 0
16 -41 24 0
-30 64 57 0
-2 67 -15 0
52 67 -63 0
-59 9 37 0
-12 62 -40 0
40 -70 59 0
-1 20 67 0
35 -45 -56 0
-12 -19 -40 0
-68 67 57 0
-56 61 -41 0
25 48 46 0
-57 66 -23 0
23 -24 -68 0
-60 -62 -37 0
21 22 24 0
-31 -38 -42 0
21 -26 -10 0
-5 41 -56 0
-58 -50 -65 0
61 -33 -13 0
34 55 6 0
-3 2 -47 0
65 57 -63 0
2 69 -34 0
-7 45 30 0
42 -69 47 0
70 -34 56 0
37 -7 52 0
9 -43 18 0
19 57 41 0
49 30 -19 0
-44 37 -60 0
-48 -29 5 0
54 46 2 0
-20 -4 -32 0
43 -19 28 0
-65 24 10 0
11 29 -48 0
58 44 -19 0
-7 37 -23 0
-9 56 -5 0
-3 -45 -54 0
3 -26 -24 0
17 -12 52 0
45 -48 -66 0
-23 -57 -28 0
34 -4 17 0
51 8 -64 0
57 20 37 0
48 -52 61 0
-42 -44 34 0
14 -16 7 0
-70 -34 -6 0
50 47 30 0
66 -56 -10 0
-68 -16 33 0
1 -40 9 0
-17 -1 -51 0
-5 -61 43 0
40 59 -38 0
-31 69 68 0
-24 -20 -46 0
14 -16 -37 0
51 -16 53 0
-22 8 54 0
-60 -15 -63 0
-3 -1 54 0
63 1 26 0
-14 56 -29 0
-19 34 -68 0
19 24 2 0
52 -53 -69 0
-55 64 20 0
44 -21 4 0
-31 65 -59 0
-36 59 16 0
39 57 -69 0
62 24 -1 0
62 58 -50 0
-43 -31 63 0
8 39 -5 0
-69 -11 36 0
49 57 16 0
53 -48 -40 0
-3 -65 -46 0
-21 -54 -50 0
28 -24 -2 0
-10 54 -11 0
53 -13 16 0
3 43 19 0
-15 -13 21 0
65 -20 -54 0
-62 33 -54 0
28 -38 19 0
3 37 -5 0
-46 -69 -42 0
23 -16 70 0
-4 -38 28 0
-23 6 54 0
34 11 10 0
31 16 -7 0
25 43 -66 0
26 25 -55 0
-52 -18 56 0
-57 17 48 0
43 50 12 0
-59 -61 53 0
4 -2 65 0
-64 -69 52 0
43 63 -19 0
20 25 51 0
14 -60 -49 0
-13 -42 8 0
60 16 -30 0
-12 -47 -29 0
-30 -3 -56 0
52 48 47 0
25 -2 -39 0
48 49 -25 0
-63 -49 -66 0
-50 -17 -63 0
-70 -16 -56 0
8 59 -37 0
-12 46 -35 0
25 -31 -24 0
-2 -35 66 0
-15 -2 23 0
67 65 27 0
-57 68 49 0
42 50 56 0
40 31 2 0
-66 -9 59 0
-21 41 39 0
-14 -48 17 0
58 29 48 0
38 -13 -39 0
59 39 57 0
-47 10 33 0
-52 -40 -2 0
51 28 -50 0
6 7 3 0
63 -14 -21 0
6 -3 27 0
47 -38 50 0
37 14 67 0
10 17 -31 0
-65 -57 60 0
3 55 46 0
-17 58 31 0
41 68 23 0
51 15 -50 0
65 46 -6 0
54 -12 -51 0
-2 -26 68 0
29 5 3 0
15 -14 2 0
53 37 -46 0
28 36 -27 0
-35 50 44 0
-51 57 45 0
-70 43 -59 0
66 -61 44 0
-4 -51 9 0
-50 15 -36 0
-51 -12 2 0
41 -15 -68 0
-58 -25 4 0
17 12 30 0
-40 -49 19 0
40 58 -45 0
-41 -14 27 0
-27 23 -1 0
4 -54 -58 0
-44 52 -2 0
-38 70 -41 0
47 39 -51 0
-31 -15 54 0
59 10 -50 0
8 -20 25 0
61 21 4 0
5 -30 -48 0
-26 61 -7 0
-68 -2 1 0
55 -64 -32 0
46 19 -61 0
66 28 -44 0
37 -51 -4 0
30 -64 -36 0
-6 3 2 0
-40 -26 -19 0
-27 -62 -15 0
54 -44 -59 0
21 31 -1 0
14 -25 31 0
-7 -48 15 0
16 65 2 0
-30 11 28 0
59 -20 3 0
