p cnf 70 285
-45 -15 -27 0
-58 13 -4 0
47 29 -63 0
67 38 -45 0
-55 -16 14 0
17 -3 61 0
12 27 58 0
12 49 39 0
-27 15 -14 0
-38 56 3 0
-25 -50 -44 0
19 -60 41 0
62 -37 -56 0
-36 46 58 0
-62 56 -52 0
-43 -13 37 0
68 -32 12 0
-65 -7 -45 0
31 12 61 0
-15 -13 -42 0
-31 -5 47 0
55 -20 -8 0
23 70 36 0
-50 5 -48 0
-65 -5 64 0
-63 9 31 0
-57 -48 -47 0
31 -48 -52 0
40 14 9 0
15 45 -12 0
-54 -34 15 0
-40 33 -39 0
20 45 -44 0
28 -26 -10 0
-24 40 5 0
47 19 -50 0
-8 64 -26 0
-52 25 55 0
-44 23 -9 0
-5 19 -15 0
42 67 68 0
-5 68 -3 0
-65 -8 19 0
-52 -8 69 0
45 -63 -39 0
24 61 -51 0
-57 49 -23 0
66 11 -60 0
-40 -62 18 0
-50 38 -63 0
-53 -69 -68 0
-29 8 -46 0
33 -20 -38 0
-50 59 24 0
-55 19 -64 0
28 42 60 0
-39 -9 45 0
-41 22 55 0
63 -15 27 0
-23 44 70 0
-63 40 -64 0
27 54 49 0
-35 10 48 0
55 -22 41 0
8 57 -22 0
59 8 -6 0
-2 20 -15 0
-32 -31 -53 0
67 -69 -49 0
15 24 -41 0
1 -30 32 0
49 -70 39 0
-58 -15 43 0
-26 -15 -14 0
-1 60 53 0
33 66 40 0
-22 -19 -33 0
-70 54 -29 0
-50 38 21 0
-49 -41 48 0
-32 -22 16 0
14 -69 -59 0
31 37 -68 0
13 -5 66 0
61 55 -42 0
-64 -11 -5 0
52 57 -68 0
35 12 -46 0
-2 64 -33 0
1 -41 -28 0
-10 -38 54 0
-29 62 -2 0
-16 1 62 0
13 -58 -36 0
9 10 -38 0
-37 70 54 0
-39 58 60 0
-51 47 28 0
12 40 -46 0
-50 69 9 0
-39 14 -47 0
-14 -5 54 0
4 -45 -63 0
48 -6 -21 0
-31 60 59 0
-53 -30 -55 0
31 -30 66 0
45 -38 46 0
25 -55 -46 0
-58 -69 -31 0
-66 -70 -36 0
-45 66 39 0
51 -39 26 0
-41 -24 43 0
-66 22 1 0
-69 -28 -22 0
7 1 20 0
11 59 -53 0
11 -33 -20 0
-23 -30 -10 0
-51 33 35 0
65 51 7 0
17 7 -2 0
-42 -48 55 0
38 67 65 0
-36 16 7 0
-40 -25 50 0
-17 -64 -70 0
-21 -32 -30 0
-28 -68 67 0
2 -10 29 0
-43 -17 54 0
24 -42 -37 0
-26 -37 29 0
-38 57 -41 0
-8 36 24 0
-61 -65 42 0
-37 63 29 0
20 47 10 0
-21 -68 -23 0
5 13 -34 0
-20 48 -21 0
-2 58 11 0
30 -48 45 0
12 -57 23 0
41 47 -20 0
-17 -4 -40 0
47 12 -41 0
57 -25 -59 0
-7 -51 -36 0
-60 12 38 0
-64 -13 9 0
29 27 54 0
60 58 -22 0
67 15 6 0
6 -54 -12 0
65 62 -45 0
-48 -12 65 0
-59 70 -58 0
68 62 -45 0
44 -69 30 0
35 -7 53 0
21 24 36 0
58 16 -4 0
40 -22 -4 0
-55 47 -36 0
69 -29 59 0
-56 -42 16 0
8 62 -15 0
-10 24 28 0
54 47 -50 0
12 7 9 0
-10 -22 56 0
-63 -48 -44 0
13 7 59 0
-62 -25 -10 0
-19 -60 -65 0
-44 13 16 0
-26 -25 21 0
17 -55 -52 0
32 -46 5 0
-38 20 14 0
-22 -68 43 0
-62 60 55 0
4 28 -59 0
-5 -55 -32 0
10 -47 50 0
1 9 -27 0
-37 14 13 0
31 -38 35 0
7 22 -8 0
-22 42 -64 0
-32 -66 -12 0
2 1 -48 0
-64 -25 4 0
43 -68 -2 0
65 -51 13 0
-37 62 -64 0
-66 45 -5 0
-64 -56 -19 0
-17 -3 30 0
20 -36 27 0
-47 46 -23 0
-45 23 -36 0
55 10 12 0
-36 60 -52 0
-59 -39 56 0
-10 27 1 0
1 -15 -68 0
68 35 -66 0
58 41 26 0
44 -63 -28 0
-7 62 -25 0
6 -29 30 0
-10 20 -64 0
54 3 14 0
-1 24 47 0
-67 -66 -2 0
-49 7 -30 0
50 14 26 0
-21 68 -9 0
67 33 -32 0
32 43 -6 0
-19 20 30 0
-22 -45 -17 0
-55 3 -53 0
-44 -38 25 0
-16 -67 13 0
62 35 -29 0
-62 -13 60 0
-40 -13 22 0
42 -50 41 0
-13 -68 19 0
-20 -5 -54 0
57 13 1 0
-37 -29 19 0
-47 57 -21 0
-21 -7 -5 0
14 -7 -26 0
-30 -5 -43 0
32 69 43 0
27 12 65 0
-40 12 -63 0
16 -59 10 0
6 55 8 0
-55 48 54 0
-28 -57 53 0
-10 38 -63 0
60 2 -26 0
5 66 35 0
34 -60 -55 0
-68 37 -17 0
-41 48 38 0
5 23 33 0
-65 -18 -52 0
42 -69 -20 0
-22 34 12 0
42 -7 -15 0
44 42 24 0
70 56 66 0
-52 65 45 0
-19 -35 -57 0
-12 -67 -3 0
43 -2 -37 0
66 46 32 0
9 -63 50 0
-10 66 30 0
16 56 55 0
-53 67 9 0
47 -5 -44 0
65 -16 -40 0
-57 27 42 0
4 37 -26 0
-43 -26 -12 0
-41 -52 -37 0
39 -2 -35 0
50 37 48 0
-42 -22 23 0
-41 40 -9 0
-16 -17 8 0
12 14 7 0
-40 43 -44 0
10 -67 60 0
-4 -12 -3 0
-21 45 -61 0
