p cnf 70 300
50 -35 -38 0
-12 60 -1 0
-60 44 37 0
-16 45 -64 0
10 -38 -8 0
-40 9 -70 0
-24 -16 -6 0
37 18 66 0
-41 -63 50 0
38 -19 14 0
50 31 68 0
-14 -69 -35 0
-15 36 64 0
11 25 56 0
42 -62 -37 0
-60 -44 -18 0
-14 10 -56 0
41 -65 35 0
-53 -14 -1 0
1 -45 -54 0
-12 -56 -2 0
-15 27 -38 0
-8 16 -60 0
-70 -10 29 0
41 42 -62 0
8 -10 47 0
-38 40 26 0
6 32 16 0
44 2 28 0
-10 -23 -55 0
38 33 -49 0
1 -66 7 0
-58 -25 8 0
18 -66 34 0
-13 32 -59 0
-49 -54 -30 0
55 65 11 0
38 5 57 0
-67 54 35 0
51 -58 10 0
-41 10 46 0
-58 68 -33 0
-18 -15 -53 0
-13 -23 -4 0
-67 -6 -25 0
59 -37 26 0
-67 19 -33 0
-25 40 6 0
-12 36 46 0
-58 -52 51 0
-32 56 -17 0
14 8 -20 0
46 2 -15 0
20 -55 -34 0
67 42 50 0
-33 28 -30 0
17 -14 -44 0
-22 19 -34 0
-51 43 -21 0
-29 -42 -55 0
30 -50 -65 0
-51 16 25 0
-59 -67 -12 0
-36 -56 -63 0
-9 -66 -54 0
68 29 50 0
34 15 20 0
6 -57 -49 0
19 26 68 0
39 19 65 0
1 -11 -7 0
43 35 -10 0
-6 14 2 0
7 61 19 0
41 6 -42 0
-44 7 60 0
-46 -40 -48 0
20 -55 -28 0
36 -4 35 0
-22 65 39 0
-45 -24 16 0
66 -34 70 0
8 66 57 0
-59 7 70 0
-26 -40 -16 0
67 -45 56 0
14 54 18 0
-49 7 -9 0
-47 16 -49 0
-59 -24 56 0
-70 53 13 0
-15 -13 -62 0
67 -42 -38 0
-17 69 47 0
-48 34 -53 0
-33 49 -63 0
-30 -37 26 0
69 28 -27 0
-41 -67 -16 0
-15 69 -66 0
14 -67 -18 0
33 -43 2 0
-65 -2 40 0
-62 -43 39 0
2 6 -42 0
-51 -59 -19 0
50 -66 -5 0
-10 58 54 0
3 61 51 0
54 -35 56 0
3 -18 -21 0
-32 14 12 0
-6 -67 5 0
21 47 -2 0
64 -61 41 0
63 19 34 0
31 48 29 0
56 70 -53 0
47 -33 22 0
39 -50 -31 0
-55 65 -60 0
2 53 11 0
-28 -25 -20 0
68 22 45 0
58 69 -38 0
31 -56 47 0
58 -49 46 0
64 -55 21 0
-17 6 11 0
-42 44 -59 0
-5 -65 36 0
34 29 -40 0
-62 -17 61 0
-28 27 -25 0
19 32 4 0
59 -18 28 0
-52 66 31 0
32 -51 31 0
59 -8 -14 0
-1 18 59 0
35 68 -63 0
9 37 -58 0
34 -70 -16 0
64 48 -70 0
-62 46 60 0
39 -32 53 0
61 18 45 0
68 41 -26 0
-23 54 11 0
-47 36 -43 0
-25 -29 70 0
-13 15 -20 0
56 39 27 0
-66 47 60 0
19 -31 70 0
30 -39 -64 0
23 46 1 0
-49 63 15 0
-33 54 59 0
11 -37 -50 0
63 41 21 0
-11 -5 8 0
30 50 21 0
52 -16 -66 0
8 17 4 0
-31 -65 -36 0
5 -29 42 0
-70 69 -1 0
42 -21 69 0
-61 -62 -4 0
54 52 9 0
16 9 33 0
62 28 -37 0
54 68 36 0
-4 -12 43 0
-50 5 45 0
4 59 -44 0
8 46 -52 0
-4 19 -60 0
-54 65 -64 0
-27 -61 -47 0
-35 29 -70 0
40 -3 -42 0
41 -7 16 0
36 -62 -35 0
27 42 50 0
-6 18 -23 0
3 -63 22 0
66 22 32 0
-24 -30 -65 0
34 -69 44 0
-65 26 -33 0
-25 -38 62 0
3 -7 -47 0
-34 -10 -21 0
-55 57 -38 0
-58 60 28 0
-54 65 -36 0
-33 28 -53 0
-63 34 18 0
-3 -37 -56 0
-6 -61 -50 0
28 16 49 0
58 -66 -18 0
-48 -53 40 0
-60 -65 -11 0
-62 60 61 0
36 57 -52 0
2 14 -25 0
35 -67 -31 0
36 -53 8 0
46 -50 -64 0
-42 -18 68 0
-59 -20 -35 0
45 -15 42 0
-61 49 -41 0
-45 -63 -60 0
6 12 8 0
-36 -68 31 0
-6 -23 -10 0
-62 6 51 0
-29 -32 -9 0
-67 -39 -41 0
-45 -35 -2 0
-49 -33 -40 0
-10 -39 -55 0
-48 65 31 0
46 -47 50 0
54 -9 23 0
46 67 -13 0
-1 20 -11 0
27 24 39 0
-24 -50 27 0
59 58 20 0
-32 -42 -16 0
-22 -66 5 0
-50 30 17 0
25 -52 -62 0
8 35 -45 0
-54 -10 44 0
24 65 -33 0
-37 15 -1 0
-22 -10 49 0
-4 -54 27 0
-53 15 -52 0
26 54 -53 0
-70 -11 53 0
-12 -66 11 0
-30 -52 37 0
-35 -58 32 0
57 2 -42 0
37 -30 67 0
53 -46 63 0
-4 55 36 0
63 11 -37 0
40 12 32 0
63 -13 67 0
45 25 31 0
-39 -25 65 0
-56 6 -3 0
-17 -46 -57 0
17 34 -26 0
1 -9 28 0
-7 -6 -59 0
30 -46 62 0
-18 41 -34 0
59 29 11 0
6 -12 60 0
48 -37 28 0
41 -36 10 0
3 -14 -30 0
42 13 16 0
10 23 47 0
69 -34 24 0
3 -15 2 0
41 66 68 0
61 15 30 0
-58 -43 -7 0
-63 46 -55 0
44 -18 -29 0
-47 21 18 0
-44 -29 68 0
18 12 8 0
50 -22 -4 0
41 27 24 0
-24 35 -21 0
59 2 -25 0
32 2 17 0
-8 -12 -68 0
59 49 35 0
18 14 52 0
14 47 23 0
-33 15 -38 0
-35 49 -22 0
-54 58 29 0
-26 -33 -9 0
5 62 48 0
-51 45 33 0
49 46 -62 0
18 -30 -11 0
