p cnf 70 310
58 21 37 0
70 30 68 0
12 68 -24 0
33 -58 26 0
-63 -27 -68 0
52 -43 58 0
59 41 65 0
-66 -29 53 0
22 -57 45 0
63 -53 51 0
-4 14 -59 0
32 -57 61 0
62 68 -24 0
20 1 62 0
28 41 -25 0
50 7 66 0
-25 -63 23 0
35 -20 -62 0
-38 -20 -22 0
-58 -19 16 0
-49 -64 -5 0
-23 33 -1 0
52 61 -8 0
68 -38 -13 0
-67 19 -48 0
65 50 69 0
-10 -61 -15 0
10 15 62 0
23 56 50 0
-42 -40 -70 0
-40 -68 -67 0
-67 -64 60 0
-24 13 63 0
-57 32 -44 0
-70 -43 35 0
23 10 -1 0
-47 6 68 0
-49 42 -44 0
-25 -52 24 0
-28 -47 9 0
-18 -23 -40 0
-21 -18 47 0
-11 4 42 0
-59 31 -37 0
22 -61 41 0
27 -8 53 0
-60 -17 11 0
-34 67 36 0
67 -2 -32 0
42 -65 33 0
26 -55 -52 0
-23 54 65 0
44 -12 64 0
61 -30 29 0
-34 53 26 0
-55 -48 -17 0
-37 55 1 0
27 -65 23 0
-38 -14 70 0
-63 -66 59 0
70 -12 63 0
19 70 -39 0
24 30 57 0
-32 16 -33 0
3 1 -10 0
-46 10 33 0
33 -27 50 0
55 -12 58 0
-52 -37 -38 0
18 -12 -36 0
54 -42 -13 0
69 33 -63 0
44 -28 -40 0
-68 59 48 0
-52 -5 -36 0
-20 -1 -11 0
22 -48 -2 0
-2 58 12 0
21 38 -65 0
13 22 -23 0
-51 2 42 0
46 -65 -20 0
50 -68 66 0
-69 23 -66 0
40 51 -52 0
33 -52 54 0
9 8 45 0
7 -32 -22 0
-24 -23 -21 0
-1 -12 66 0
-13 -7 26 0
-44 -51 -9 0
35 5 29 0
7 -30 -67 0
19 59 18 0
37 4 44 0
10 13 69 0
64 9 -66 0
-16 -24 6 0
-25 -45 50 0
22 -63 -42 0
-24 -32 -54 0
12 4 58 0
-34 8 -19 0
40 49 46 0
32 -61 29 0
-52 14 -5 0
-16 -55 -65 0
-6 -19 -34 0
-40 28 -60 0
-8 -63 -51 0
17 -20 59 0
-5 64 49 0
-23 -24 16 0
23 -8 -32 0
67 27 -51 0
19 -63 -8 0
-58 26 9 0
30 -24 -45 0
-13 59 -47 0
-5 16 10 0
-31 -21 -57 0
-17 -63 24 0
32 36 -61 0
-40 37 -68 0
51 8 45 0
-51 -25 -30 0
-13 -37 -50 0
-50 -8 10 0
-4 -63 -37 0
48 3 56 0
41 46 -39 0
42 -17 -18 0
5 -31 -70 0
51 61 -24 0
19 -34 -47 0
66 29 58 0
63 -34 -61 0
-51 69 -61 0
-36 -22 -7 0
-37 -25 -32 0
-44 -63 -41 0
-27 -20 -52 0
-1 -67 31 0
36 39 40 0
24 -69 42 0
-38 66 52 0
10 63 43 0
-21 -57 26 0
26 47 -29 0
-19 -8 -43 0
-38 43 5 0
44 40 -8 0
43 56 -45 0
23 -39 -51 0
-16 -12 4 0
6 -13 10 0
-48 27 -33 0
50 -1 27 0
15 -27 69 0
-6 -15 -22 0
49 46 -31 0
29 8 49 0
-66 -64 -67 0
-26 39 58 0
-59 70 47 0
-69 29 15 0
-59 -69 48 0
-10 -3 -28 0
58 -9 -57 0
31 49 36 0
-51 1 8 0
-54 38 -57 0
53 -37 6 0
68 -15 -29 0
55 47 -52 0
60 -49 62 0
-12 -38 -18 0
-67 34 -21 0
-38 -13 -12 0
-13 23 67 0
-55 61 30 0
-65 -39 -10 0
28 -36 6 0
-47 6 65 0
-21 -15 14 0
28 -60 -4 0
69 2 -46 0
-62 -36 38 0
63 -47 -65 0
-64 54 -43 0
3 40 12 0
-30 52 41 0
54 8 -3 0
34 -8 -60 0
56 -18 23 0
-52 -70 15 0
-14 -45 34 0
40 -20 -64 0
67 2 -13 0
-39 -33 64 0
48 -33 -24 0
-21 -39 -6 0
56 -47 -63 0
48 -30 -31 0
34 52 53 0
-19 -44 3 0
-6 -33 -57 0
20 -21 24 0
-65 69 11 0
-14 37 -51 0
-69 -26 -45 0
62 12 -34 0
-47 11 40 0
56 -30 66 0
-26 -29 -67 0
-6 9 25 0
-11 -34 -37 0
-26 -30 -42 0
5 11 20 0
19 -57 29 0
64 -11 30 0
39 24 -12 0
47 -65 6 0
57 -11 40 0
21 2 8 0
24 70 -25 0
28 -49 -40 0
33 -47 42 0
26 46 32 0
-23 26 40 0
-5 44 -43 0
54 -18 -33 0
-54 -11 46 0
1 37 -44 0
-26 66 -53 0
3 54 -2 0
-19 -40 -37 0
37 -3 17 0
-14 -31 33 0
9 38 6 0
-46 -21 33 0
-25 53 -14 0
-16 25 -52 0
44 -21 -45 0
1 -64 -70 0
-57 -33 -35 0
34 -68 -66 0
-61 -32 10 0
16 -19 -23 0
23 -17 65 0
-10 -66 -59 0
6 -22 14 0
28 -6 14 0
-34 1 39 0
4 26 -32 0
-53 -25 1 0
5 25 -43 0
-60 -9 70 0
-37 -29 5 0
-46 55 9 0
-6 37 -2 0
12 65 37 0
28 -58 5 0
48 -8 66 0
67 23 -25 0
58 -4 59 0
-50 65 -36 0
-33 -31 51 0
-52 -66 -36 0
22 -28 58 0
-61 -39 9 0
-34 -6 58 0
2 -48 57 0
6 -66 -63 0
34 25 -21 0
3 32 -39 0
-44 -64 39 0
51 63 55 0
23 58 33 0
1 -2 35 0
46 42 44 0
46 -45 11 0
-18 -19 67 0
40 -50 57 0
36 69 33 0
-69 -68 27 0
16 34 43 0
-52 -37 -24 0
-12 40 -1 0
-53 -35 26 0
5 7 45 0
46 -52 -64 0
-7 15 54 0
40 -14 -61 0
64 42 -20 0
-21 14 -7 0
1 -36 27 0
-31 -42 -66 0
55 58 26 0
29 37 -51 0
-53 -18 -17 0
-57 -55 40 0
-8 35 -51 0
64 15 25 0
-31 9 -23 0
23 -48 24 0
-30 -24 4 0
10 26 37 0
23 10 21 0
