p cnf 70 265
45 55 41 0
-15 -67 -37 0
51 30 -20 0
8 45 -51 0
51 3 -19 0
17 -40 12 0
34 -31 3 0
21 -52 12 0
63 -55 -9 0
52 -16 -18 0
9 39 19 0
52 30 21 0
-61 -55 37 0
-9 -5 -17 0
7 -24 -11 0
43 11 -1 0
3 49 -1 0
64 -65 2 0
-8 17 -37 0
59 -52 -53 0
-49 -33 10 0
46 -45 59 0
-4 48 36 0
70 33 -42 0
-31 -25 -57 0
-44 34 47 0
57 -69 -52 0
56 58 21 0
2 -19 -26 0
10 55 -8 0
-42 19 48 0
23 -34 28 0
63 -69 -1 0
50 35 -28 0
24 49 70 0
41 -16 57 0
-45 19 -40 0
-35 9 -10 0
-34 15 -45 0
-38 -42 40 0
60 -63 6 0
49 -67 57 0
18 -8 36 0
-31 65 59 0
-32 6 -51 0
49 -30 53 0
9 21 -53 0
-43 42 -45 0
-24 31 64 0
36 -6 -33 0
48 62 -26 0
55 -36 52 0
-14 17 60 0
-56 -32 -22 0
45 -28 38 0
21 -38 53 0
-46 -59 -25 0
9 -46 -34 0
-8 -15 57 0
-69 -61 -22 0
46 -17 42 0
-55 8 36 0
-2 56 -59 0
-41 22 38 0
35 37 -4 0
26 31 -22 0
-30 7 35 0
46 -29 22 0
41 50 55 0
-35 -64 -30 0
-3 58 -33 0
-57 -30 -22 0
61 70 -19 0
62 -51 -49 0
34 10 57 0
12 -67 58 0
62 63 -64 0
46 -3 -58 0
57 -11 -16 0
29 -62 2 0
13 32 -40 0
-12 25 42 0
-11 63 33 0
48 1 -16 0
-2 10 -12 0
42 20 -27 0
30 -7 51 0
-24 3 -57 0
18 22 40 0
4 -38 -54 0
-55 66 -10 0
30 37 31 0
11 -10 41 0
-4 36 55 0
39 -54 -34 0
46 56 -25 0
59 -41 12 0
62 38 -59 0
-70 -11 -9 0
-46 47 69 0
41 -49 48 0
19 -29 -52 0
-28 11 50 0
46 54 5 0
38 -56 49 0
-64 -28 -70 0
-47 -27 -43 0
-42 20 57 0
-55 -28 43 0
-24 -55 -28 0
-5 21 -36 0
-59 -61 -13 0
-3 37 40 0
1 -70 28 0
33 -53 -50 0
-21 34 -25 0
33 7 49 0
11 68 -40 0
-25 5 38 0
-70 -35 -1 0
51 -7 -21 0
5 64 63 0
-17 -62 55 0
-48 54 -17 0
47 6 45 0
-39 60 17 0
-63 41 -22 0
-34 22 -15 0
11 19 28 0
-3 -19 -29 0
2 -62 -33 0
-69 21 -22 0
58 52 -34 0
47 67 10 0
-28 33 53 0
48 43 -5 0
4 50 39 0
-6 -4 -66 0
43 -36 -37 0
-22 5 66 0
14 2 13 0
-41 -53 31 0
27 -6 5 0
-16 -7 -55 0
40 56 42 0
66 9 17 0
65 -63 -27 0
-64 35 1 0
38 29 21 0
44 68 -30 0
1 61 -58 0
-45 52 -29 0
-24 -18 56 0
22 -62 -16 0
-61 67 43 0
9 49 69 0
49 -59 -65 0
-47 27 -70 0
42 49 4 0
-15 -10 -32 0
-32 -49 -34 0
-9 24 -40 0
64 57 -63 0
-19 7 47 0
-47 -48 27 0
-54 -55 11 0
47 66 24 0
-34 33 -5 0
-60 -3 -24 0
-10 62 -60 0
-5 -28 -49 0
62 31 57 0
-19 -28 -66 0
-59 -9 -46 0
-37 -19 -4 0
52 38 35 0
-36 14 34 0
-48 -36 41 0
29 12 3 0
52 -32 25 0
16 21 -53 0
56 38 -58 0
7 16 64 0
44 -14 -67 0
49 26 -37 0
-46 -29 -53 0
-48 -59 -44 0
-34 -38 -10 0
5 48 -3 0
65 -50 -32 0
24 50 -29 0
35 17 -55 0
4 -40 -39 0
-60 -58 55 0
5 64 11 0
56 -61 -5 0
11 40 -45 0
-54 11 24 0
68 -10 62 0
-69 59 -34 0
-51 57 52 0
10 68 -70 0
35 25 13 0
39 -20 -64 0
-64 45 22 0
-61 -35 33 0
-36 62 7 0
-2 35 -4 0
53 31 -9 0
27 70 15 0
8 -61 -15 0
61 -59 51 0
-15 62 69 0
-57 41 -67 0
-35 26 49 0
34 -48 -66 0
-16 23 -42 0
-29 25 26 0
21 -42 -2 0
8 54 -33 0
5 36 -21 0
11 59 -36 0
15 -20 -1 0
-48 -21 36 0
42 41 52 0
-64 -7 36 0
41 -37 -34 0
-15 -64 -52 0
39 12 -54 0
14 -66 1 0
-68 -4 -22 0
67 13 -9 0
41 58 -62 0
-21 14 -49 0
-37 21 -52 0
-51 -17 -45 0
-21 37 6 0
13 -57 -14 0
-62 -36 65 0
-68 -18 60 0
-2 -63 11 0
-19 17 5 0
2 -45 62 0
34 -44 -16 0
66 65 45 0
44 65 -69 0
40 69 -61 0
60 34 30 0
-31 -42 -20 0
-42 57 -26 0
-49 -25 58 0
46 -6 -41 0
-54 8 -2 0
-15 12 32 0
-15 55 -60 0
-66 -28 -23 0
-20 52 -24 0
-38 12 45 0
-20 -26 51 0
27 56 -3 0
29 1 41 0
-15 12 -42 0
69 54 -61 0
-24 -18 -33 0
10 43 21 0
