p cnf 70 290
-40 -43 34 0
-68 18 -34 0
-10 15 2 0
-25 52 -23 0
50 42 -53 0
8 26 43 0
69 25 60 0
62 69 -6 0
-7 50 -37 0
-12 -66 61 0
17 7 64 0
-58 -51 -2 0
30 -8 -32 0
-34 -25 14 0
31 -32 -38 0
56 40 21 0
-57 41 69 0
-69 20 -59 0
12 -25 -3 0
12 -38 67 0
-41 60 -36 0
-47 -25 5 0
17 -52 66 0
-13 64 -17 0
-27 -16 -64 0
37 -55 -7 0
-44 51 -7 0
-31 -14 57 0
-57 26 34 0
-3 9 -8 0
67 -35 22 0
-28 52 -40 0
-24 -28 2 0
-70 -14 -69 0
-17 15 30 0
52 -25 -47 0
11 -53 -45 0
-36 -29 -1 0
36 -25 39 0
-38 18 49 0
-65 -11 -40 0
61 -17 32 0
-59 3 32 0
-7 48 -38 0
-47 -38 24 0
-55 -49 54 0
10 46 -34 0
-51 14 49 0
-28 -33 -44 0
11 6 -47 0
31 17 39 0
5 7 -58 0
-65 41 -20 0
-36 33 -29 0
37 1 -41 0
-38 -43 -20 0
-15 13 -32 0
66 -11 -19 0
61 64 -67 0
-53 -46 -54 0
-51 23 -34 0
13 46 -5 0
-45 10 -52 0
-12 -22 43 0
-69 -11 -38 0
15 -42 -62 0
22 -32 -30 0
-67 35 24 0
48 41 52 0
-18 70 -45 0
-61 -45 24 0
49 47 -14 0
-62 -9 -69 0
-68 69 -10 0
5 -69 -26 0
-14 43 52 0
49 3 -67 0
-37 16 -69 0
17 5 -3 0
-62 66 -60 0
58 -22 -2 0
-3 -57 -22 0
30 46 33 0
-27 -5 10 0
-13 24 -43 0
-12 50 34 0
5 -69 -44 0
-42 5 8 0
19 57 -66 0
32 70 -29 0
59 -56 69 0
-22 -5 -45 0
-17 -5 13 0
20 -6 30 0
21 6 -4 0
-59 23 29 0
47 23 -42 0
-66 -65 52 0
22 -50 -11 0
8 2 -29 0
45 -70 33 0
51 -63 -3 0
67 68 21 0
66 -49 62 0
-10 49 -44 0
-8 42 12 0
-20 60 18 0
-54 34 -67 0
-43 3 -24 0
42 56 -40 0
-4 14 -31 0
-34 32 -48 0
-19 -2 -53 0
13 -21 -18 0
-50 -20 -9 0
-25 11 -9 0
-44 -13 -8 0
-28 -6 14 0
13 -41 -64 0
-42 -39 -32 0
-22 -35 5 0
-26 -51 -22 0
47 -28 -15 0
64 5 9 0
-64 -61 40 0
-6 -44 59 0
-37 -47 -39 0
-8 17 14 0
45 44 -32 0
-5 44 -36 0
-68 -43 50 0
-29 48 -12 0
52 9 51 0
-59 -1 -36 0
17 53 -49 0
58 -65 -63 0
54 -51 -64 0
38 -16 -13 0
24 10 62 0
-27 -61 69 0
62 63 33 0
67 -3 -41 0
-19 29 -52 0
-48 -47 -12 0
-61 10 -35 0
-47 63 -69 0
28 -38 62 0
59 -12 -34 0
-3 57 -19 0
-29 -61 21 0
-24 -1 25 0
54 19 66 0
50 -70 -68 0
38 -19 23 0
-27 35 -2 0
22 7 -18 0
-5 40 16 0
-65 -56 9 0
1 20 -24 0
-41 -70 36 0
64 -28 55 0
-27 -32 -30 0
30 33 55 0
-27 -35 -37 0
48 44 -40 0
31 -64 -8 0
-8 -70 -35 0
-46 -30 -58 0
-60 14 38 0
5 59 -18 0
-60 33 -21 0
34 -42 55 0
6 58 -32 0
-3 55 -11 0
-64 1 -58 0
-42 69 -18 0
35 30 60 0
-62 -38 -15 0
40 47 -12 0
-24 -61 55 0
-50 26 -19 0
66 47 17 0
-21 -16 -25 0
32 2 33 0
40 -5 20 0
-48 14 -19 0
-22 -58 -47 0
-18 65 6 0
-24 52 -39 0
32 51 -28 0
26 48 59 0
23 -61 17 0
24 -37 22 0
6 -57 61 0
-59 -38 21 0
48 -29 6 0
-7 -49 15 0
-32 -49 3 0
-38 18 -39 0
14 -3 -38 0
-23 53 4 0
46 -13 16 0
-15 12 11 0
14 22 -43 0
-60 45 33 0
-22 -58 -30 0
59 -53 25 0
24 12 41 0
-64 -61 -39 0
30 15 -3 0
66 38 14 0
-10 52 -66 0
-47 53 -37 0
-9 -41 -26 0
59 34 -56 0
-58 7 33 0
33 -45 70 0
-37 -45 -44 0
12 -4 6 0
-52 -2 47 0
-34 -56 50 0
39 27 55 0
10 -9 -32 0
40 -35 62 0
-68 -41 -26 0
4 3 12 0
66 -55 -31 0
-19 -2 7 0
36 55 19 0
-13 35 8 0
6 36 -25 0
-66 7 62 0
26 37 -5 0
-65 -5 30 0
6 37 68 0
54 -58 31 0
-3 -8 28 0
26 -36 -38 0
-61 -28 25 0
50 -49 -7 0
7 32 -44 0
-9 -16 -64 0
-21 -30 20 0
37 -6 -56 0
27 6 -23 0
64 2 7 0
-67 -8 -53 0
-40 64 46 0
-55 -40 -68 0
-31 52 -58 0
8 30 -53 0
-44 -49 2 0
-52 16 -68 0
9 2 28 0
1 33 22 0
65 -50 -63 0
-46 28 31 0
14 62 44 0
-36 60 52 0
-53 -42 -63 0
70 -69 19 0
-35 -12 24 0
-28 29 56 0
-55 -68 -1 0
64 -39 24 0
-4 14 39 0
52 20 35 0
25 -64 -50 0
14 35 36 0
70 24 -11 0
34 19 -44 0
-55 5 -29 0
55 58 -70 0
2 20 -40 0
28 -26 -36 0
-27 -42 8 0
18 -26 37 0
-41 8 1 0
-47 -7 -35 0
-54 6 61 0
-19 -34 -47 0
54 -7 -37 0
-7 45 69 0
-24 -8 44 0
-59 -4 50 0
68 -13 -2 0
3 -41 -60 0
-14 3 -1 0
20 69 5 0
-23 -3 -44 0
