p cnf 70 300
20 2 -40 0
-65 -34 -43 0
47 62 22 0
-24 -50 40 0
10 45 49 0
-60 -4 5 0
63 -39 -35 0
24 68 41 0
-50 22 38 0
51 -46 68 0
46 3 33 0
50 70 61 0
4 -67 -51 0
-14 45 39 0
-44 28 23 0
-66 49 -57 0
-29 58 37 0
-30 52 56 0
51 33 -24 0
13 34 -56 0
2 48 -13 0
-65 57 -49 0
58 -37 63 0
7 30 -25 0
35 13 1 0
-34 -28 54 0
-19 34 30 0
-9 8 -46 0
17 28 -44 0
-57 26 -59 0
-61 -69 64 0
22 -57 -65 0
-60 8 49 0
-10 -21 34 0
-69 -40 -16 0
44 14 -12 0
27 57 -46 0
42 -25 43 0
-48 -55 -25 0
-23 7 -66 0
-12 4 13 0
52 13 40 0
4 -6 36 0
-44 53 27 0
29 52 -10 0
-16 -61 46 0
30 33 -32 0
11 39 -27 0
49 24 -67 0
14 43 48 0
-32 28 -17 0
59 -24 27 0
51 11 21 0
43 -8 56 0
-21 51 17 0
12 -70 20 0
-63 48 -50 0
16 -64 -18 0
30 -5 -24 0
-53 24 59 0
23 39 -2 0
68 37 49 0
22 -69 37 0
-65 -13 -4 0
-44 12 -3 0
21 -60 -44 0
-38 70 68 0
-44 -35 -51 0
66 -34 -65 0
68 -66 65 0
58 -40 25 0
1 44 -12 0
69 -6 62 0
-51 -53 33 0
-38 68 -50 0
-22 -53 9 0
-31 14 8 0
26 -54 -63 0
35 32 -56 0
-3 -7 28 0
38 61 -68 0
24 -34 5 0
70 36 -42 0
-28 -56 -38 0
-19 64 -67 0
-54 -19 4 0
35 -19 -50 0
-62 59 63 0
-57 9 14 0
-40 9 13 0
-10 -64 -6 0
37 58 50 0
-46 34 42 0
21 15 12 0
38 -58 50 0
-22 -19 69 0
29 -48 56 0
25 39 -10 0
67 -63 -47 0
-1 -8 39 0
-46 42 33 0
43 -49 36 0
-52 -46 14 0
-8 5 -15 0
39 14 46 0
26 -13 -31 0
-1 54 -38 0
-23 66 -27 0
58 -28 1 0
-19 4 33 0
44 31 70 0
20 41 48 0
65 39 42 0
54 -52 23 0
33 -6 -28 0
-21 19 -12 0
-52 28 -43 0
-32 34 63 0
-31 65 -6 0
47 -29 55 0
-1 -48 -8 0
10 33 49 0
-24 -45 -38 0
63 -64 17 0
-56 -32 28 0
35 -41 -33 0
17 -33 11 0
55 51 67 0
58 25 -11 0
-21 -37 38 0
-14 -21 -50 0
49 -33 21 0
-64 53 -17 0
59 39 -15 0
53 -14 31 0
47 -5 53 0
-56 6 62 0
-48 -31 28 0
21 -47 36 0
-2 -44 -47 0
-47 56 44 0
2 -57 14 0
-69 -20 61 0
-60 57 -62 0
45 -65 -30 0
-58 -67 -3 0
-67 33 54 0
-5 28 -57 0
-38 34 -21 0
-15 -39 -65 0
45 29 65 0
18 -52 -47 0
31 -2 1 0
43 -8 -45 0
49 -67 -16 0
-23 16 -43 0
19 38 -12 0
-68 -62 5 0
-29 18 5 0
-32 38 -37 0
-70 -51 53 0
16 -50 2 0
-41 -29 -10 0
25 46 9 0
-44 36 43 0
63 -58 56 0
22 -46 29 0
-49 28 -36 0
5 14 64 0
28 -53 32 0
-41 -33 28 0
42 43 32 0
-22 38 42 0
-36 18 43 0
44 54 40 0
-43 -66 49 0
-45 -15 48 0
-53 5 38 0
-53 -69 47 0
-36 9 -28 0
-51 -42 70 0
-64 40 34 0
-64 -32 -5 0
3 -38 29 0
-19 16 -43 0
23 -55 17 0
3 62 -9 0
33 11 29 0
63 11 -43 0
-15 25 19 0
59 -57 19 0
21 48 68 0
-46 10 27 0
-38 18 7 0
-19 -17 5 0
-63 41 29 0
-64 -18 -52 0
34 -55 -57 0
-25 49 -69 0
-38 25 -51 0
13 -51 64 0
53 26 -4 0
68 13 8 0
11 -61 -27 0
-68 23 63 0
-51 -30 69 0
-42 44 29 0
-46 55 -61 0
-61 -31 38 0
3 14 40 0
-40 33 -31 0
-67 30 -56 0
39 -5 22 0
13 65 -29 0
7 -9 -3 0
-22 -13 -46 0
-25 -16 -33 0
-48 49 3 0
25 -18 -14 0
-15 64 32 0
32 -20 29 0
3 -34 -6 0
-20 58 -35 0
-32 -66 -59 0
-51 27 -20 0
-29 2 10 0
59 -68 -5 0
-55 -12 17 0
4 -60 -42 0
-13 57 63 0
63 69 -52 0
26 27 38 0
21 1 57 0
49 58 -54 0
21 -62 42 0
11 -10 -50 0
52 -36 8 0
32 55 -64 0
20 -38 63 0
-63 40 -4 0
-10 -27 33 0
17 28 68 0
-20 -44 -57 0
46 -7 -34 0
63 41 55 0
54 67 56 0
-35 49 25 0
-54 -22 -66 0
-35 -20 39 0
-49 10 -19 0
25 -57 -41 0
13 12 -64 0
43 23 58 0
-60 47 62 0
-50 14 -49 0
19 67 58 0
23 -20 64 0
-5 36 -35 0
9 -44 -2 0
45 27 65 0
3 55 49 0
-25 -32 -46 0
27 -44 35 0
57 19 42 0
3 -47 62 0
-60 -45 -31 0
-15 12 42 0
-65 -8 -19 0
63 -19 7 0
16 3 -56 0
65 13 -21 0
-67 20 -7 0
-61 68 50 0
10 19 -2 0
-13 68 8 0
27 -55 -37 0
-21 -58 -13 0
41 -4 23 0
3 -9 -56 0
-37 -33 -8 0
-54 42 38 0
-54 59 -46 0
2 -3 67 0
-70 -4 38 0
-5 15 -21 0
-36 13 -8 0
62 -38 -3 0
50 1 -8 0
-19 22 -43 0
-42 65 36 0
67 -66 46 0
-61 59 13 0
64 -65 46 0
-3 51 37 0
20 4 62 0
-37 64 -25 0
-20 9 -56 0
53 -39 8 0
55 -64 46 0
-21 60 4 0
