p cnf 70 275
-44 -59 5 0
-31 -57 16 0
64 49 -17 0
21 15 28 0
24 30 11 0
-11 -60 38 0
-5 -54 -47 0
-25 -23 30 0
-22 25 -6 0
46 36 25 0
64 27 8 0
44 -30 9 0
65 -67 -22 0
37 -14 51 0
-35 -40 -58 0
28 5 -58 0
70 49 -1 0
-36 -37 -2 0
56 -34 38 0
-37 14 32 0
70 63 -8 0
-67 -64 57 0
18 -49 -9 0
-38 32 68 0
57 12 -4 0
35 18 -23 0
63 -37 -44 0
-70 7 31 0
69 -6 -38 0
7 -56 -40 0
-4 31 -19 0
-12 65 1 0
-51 44 8 0
-15 -48 -53 0
-34 41 20 0
67 17 36 0
-48 59 -46 0
42 -68 -60 0
-27 60 42 0
-65 -63 -46 0
-52 -4 64 0
-44 6 61 0
9 -24 -55 0
-23 44 27 0
-69 68 -48 0
-22 -56 -33 0
19 -12 -14 0
59 -15 -23 0
-40 -58 -21 0
-43 -32 35 0
-6 17 -15 0
-48 -38 -10 0
-55 -43 67 0
-42 61 -56 0
51 -42 -38 0
48 44 65 0
-64 44 -45 0
-15 70 69 0
66 -12 -18 0
19 2 -41 0
52 33 -68 0
23 41 60 0
54 55 -64 0
38 -69 45 0
-55 -3 -49 0
-47 -2 -22 0
-27 -32 53 0
-11 -64 -58 0
37 62 50 0
-32 64 1 0
60 -53 -50 0
-8 -34 -33 0
-23 -59 27 0
-22 -5 -30 0
-12 3 -46 0
24 15 23 0
-14 -19 -34 0
-16 -59 51 0
6 5 10 0
54 61 -59 0
-61 3 26 0
20 -36 69 0
24 33 50 0
7 -5 -53 0
10 20 -43 0
-34 -45 60 0
-23 60 -24 0
17 -57 70 0
5 -39 44 0
-37 -64 38 0
33 6 -21 0
60 -44 -32 0
-36 19 -8 0
-1 -65 -28 0
-53 -19 62 0
25 -31 -27 0
-1 -60 51 0
-6 36 -70 0
68 -47 53 0
36 -52 -18 0
-69 -19 -50 0
11 -16 24 0
16 51 -52 0
-49 -47 12 0
31 -49 -47 0
47 70 -12 0
8 -39 -57 0
-27 -25 42 0
25 12 -10 0
33 -50 -69 0
7 -6 28 0
63 -39 -11 0
13 4 -60 0
14 63 58 0
70 48 -67 0
-29 43 24 0
-61 -53 -30 0
-66 32 -61 0
-1 8 60 0
34 28 16 0
-39 7 -62 0
27 34 -40 0
32 49 -1 0
58 39 -14 0
60 43 16 0
63 31 6 0
-50 -33 49 0
-19 -31 11 0
57 3 -43 0
67 5 59 0
-52 -51 36 0
-11 20 56 0
7 -28 26 0
-44 40 -12 0
-1 21 10 0
-58 32 21 0
-11 -17 -3 0
34 -21 49 0
45 -67 36 0
-22 -17 9 0
-2 -3 44 0
38 -54 26 0
-14 42 -15 0
-70 -19 -35 0
-1 44 -36 0
50 44 66 0
-29 50 -43 0
-46 -48 -13 0
24 -47 -11 0
-15 -26 32 0
24 34 58 0
6 -49 -20 0
36 31 -60 0
16 -1 -21 0
-10 38 36 0
37 38 -46 0
-35 2 -27 0
-30 37 36 0
14 -45 -3 0
-33 55 -44 0
-65 25 -36 0
-40 35 19 0
68 -69 61 0
-59 -23 29 0
41 40 48 0
52 60 34 0
-69 -36 -10 0
-25 -19 -48 0
-39 51 66 0
-49 32 -12 0
50 -30 8 0
-70 28 10 0
-34 58 -45 0
65 -12 -9 0
3 -55 -64 0
-10 -19 18 0
-53 -4 -52 0
57 66 61 0
-10 -42 -8 0
2 52 35 0
-41 28 50 0
-35 -22 9 0
36 22 41 0
7 -25 49 0
-27 -10 22 0
6 -7 -46 0
-10 -11 62 0
-29 -55 -67 0
-62 -11 36 0
-24 -46 22 0
44 -64 1 0
-51 -8 -47 0
-36 -28 16 0
-39 52 10 0
-12 10 -65 0
-11 -55 2 0
-65 33 50 0
-62 56 -20 0
70 -19 60 0
67 -22 61 0
23 61 14 0
-18 42 -60 0
-8 4 53 0
45 -32 4 0
10 -57 20 0
13 -52 58 0
-22 63 16 0
67 30 -4 0
15 -14 40 0
-7 -14 -46 0
-35 25 -41 0
67 -33 11 0
-69 59 -6 0
3 -69 -25 0
-3 -14 19 0
62 -1 -36 0
-46 3 -17 0
-38 -14 21 0
21 13 -28 0
11 -68 65 0
-57 59 -15 0
-8 50 9 0
67 -15 64 0
56 48 10 0
-53 -47 -40 0
58 -4 -9 0
6 31 -18 0
-50 -25 16 0
48 68 36 0
59 -61 26 0
19 39 -50 0
-66 10 -32 0
15 54 12 0
-70 35 -47 0
20 -26 59 0
-56 36 63 0
33 29 -65 0
22 70 -41 0
-27 43 -32 0
-38 31 67 0
-16 33 -52 0
-44 -14 29 0
-59 -52 53 0
-35 -38 2 0
43 2 29 0
-11 46 -32 0
-51 37 -46 0
-16 13 -52 0
60 -65 -58 0
42 38 -31 0
-34 8 -11 0
-33 -49 -42 0
-5 23 -39 0
29 -64 11 0
-14 1 -24 0
-36 9 -24 0
70 -1 -15 0
-63 -22 57 0
-10 59 31 0
-69 15 -18 0
-4 -52 36 0
22 61 -59 0
-26 24 -69 0
35 -51 -45 0
35 -32 37 0
4 -44 -53 0
60 -46 31 0
6 -1 19 0
-32 -44 61 0
49 -6 53 0
-7 -63 -29 0
33 10 -62 0
-47 -18 62 0
-62 15 -38 0
58 63 62 0
