p cnf 70 275
-10 -40 -53 0
50 55 66 0
-11 16 21 0
58 50 29 0
-66 -32 38 0
43 -57 25 0
-65 -35 -63 0
9 -42 -33 0
15 36 -42 0
-16 -25 22 0
13 8 -55 0
-30 -3 27 0
-53 56 -22 0
-30 -1 43 0
41 -70 7 0
-12 67 -27 0
-69 -55 -8 0
68 10 52 0
26 35 -27 0
69 52 70 0
-70 -45 68 0
-2 -47 40 0
13 66 60 0
15 67 36 0
-65 -13 -56 0
50 59 41 0
3 58 -10 0
14 -7 33 0
44 17 -66 0
-48 -6 35 0
-34 -69 -15 0
61 -57 25 0
57 -18 -70 0
-45 4 -28 0
-59 48 -52 0
-28 -55 42 0
-22 -3 -34 0
1 -46 5 0
-40 47 27 0
26 22 -36 0
44 22 -67 0
-52 24 66 0
-1 -60 -33 0
24 -45 -60 0
8 -20 24 0
-53 -24 -18 0
-5 12 60 0
52 11 5 0
-69 -1 10 0
-59 2 -13 0
3 17 -43 0
-5 -44 -23 0
-13 50 -66 0
56 22 65 0
29 -25 -23 0
-52 8 30 0
-57 27 -39 0
55 -3 -65 0
-55 68 -31 0
44 -48 -51 0
26 -60 18 0
41 46 51 0
12 -53 -8 0
70 2 -63 0
-19 5 -29 0
16 57 34 0
42 -2 -58 0
-50 -12 -30 0
-60 13 -5 0
-40 -69 -6 0
67 -46 -30 0
46 -17 40 0
35 65 -68 0
-48 29 23 0
-15 35 57 0
-16 -29 -40 0
-53 35 58 0
66 -56 -58 0
64 -7 30 0
52 67 46 0
32 -9 7 0
1 -54 -18 0
-36 -59 -23 0
64 -53 51 0
-4 -54 -41 0
70 -59 -36 0
54 46 -50 0
-42 16 18 0
49 -15 -51 0
-41 59 67 0
-53 -65 45 0
43 -63 36 0
-29 -40 52 0
-38 -52 32 0
-56 -37 45 0
-28 -16 -70 0
50 54 -53 0
-21 -60 64 0
-61 -46 54 0
-61 -58 -70 0
-2 67 70 0
-19 17 -29 0
-9 55 64 0
11 -19 -14 0
-16 -47 -67 0
19 -8 68 0
42 -32 51 0
-4 -24 69 0
-46 -23 -44 0
48 40 -12 0
65 46 -64 0
-59 -68 -66 0
25 -69 -37 0
-55 -8 49 0
29 68 -40 0
2 -57 69 0
-6 -50 -18 0
59 -32 5 0
33 28 -31 0
-41 -69 -50 0
46 -17 23 0
-60 66 10 0
-12 37 -32 0
-19 15 31 0
-59 40 55 0
-55 62 23 0
16 60 -17 0
-6 52 -26 0
-10 31 57 0
-68 45 64 0
-18 23 -30 0
38 9 14 0
8 -67 -12 0
33 62 -15 0
-17 65 -36 0
-42 20 51 0
7 -50 -44 0
61 13 19 0
35 38 -21 0
46 31 53 0
57 -26 -34 0
-32 -49 40 0
15 3 -31 0
19 -25 35 0
14 2 -32 0
-2 -40 63 0
62 7 12 0
-17 18 24 0
24 -61 -38 0
49 4 -20 0
-27 13 -29 0
-12 18 67 0
-63 -21 -47 0
24 48 27 0
44 -32 67 0
44 66 -6 0
-40 47 23 0
64 23 7 0
-31 -48 12 0
-19 -31 -17 0
-20 7 -3 0
-49 1 -12 0
40 -26 -13 0
43 39 40 0
68 6 -7 0
38 -30 -42 0
42 -55 -10 0
-3 40 13 0
-8 59 -50 0
-25 -46 21 0
-42 -22 -23 0
-45 -59 63 0
-34 -22 62 0
-30 58 51 0
55 -13 -35 0
-22 -29 -1 0
26 -7 -70 0
-38 -36 13 0
65 -60 52 0
-37 -9 -48 0
-44 51 59 0
-66 -2 -25 0
-32 24 -14 0
7 30 -21 0
-18 -2 49 0
6 -51 38 0
-44 68 -19 0
-3 -61 -42 0
-43 -13 53 0
-48 61 3 0
69 55 58 0
-60 -67 -6 0
-33 -62 -38 0
-64 68 16 0
56 -57 -40 0
28 -34 68 0
14 58 -36 0
21 -58 45 0
-66 -6 -50 0
-16 14 -19 0
-25 -14 -13 0
-19 33 57 0
22 17 -49 0
-32 -15 -56 0
16 19 -59 0
-5 46 65 0
47 -19 -35 0
-32 -12 70 0
57 -68 3 0
-7 68 67 0
-68 69 46 0
-58 -54 -48 0
-27 25 48 0
-24 -14 68 0
-30 50 32 0
-57 -59 -8 0
-51 -45 33 0
7 -65 -68 0
36 66 6 0
67 69 42 0
32 3 41 0
7 12 -4 0
-54 64 -41 0
11 16 -23 0
30 -5 -17 0
-24 29 -11 0
-17 -44 21 0
-57 -66 42 0
57 -49 62 0
64 -61 69 0
67 -39 -13 0
-28 7 26 0
30 -58 -51 0
-43 12 -53 0
15 20 -65 0
29 -15 -64 0
44 7 -62 0
41 54 16 0
-26 47 69 0
-38 -59 -57 0
26 -17 34 0
29 41 -64 0
9 -23 16 0
52 -30 -44 0
29 34 52 0
-43 28 -29 0
66 12 -44 0
5 -25 -62 0
54 -22 31 0
-62 5 31 0
17 14 -40 0
-35 53 10 0
48 57 50 0
4 36 34 0
31 -54 -26 0
-33 -41 -27 0
29 67 -12 0
-58 -63 57 0
-63 29 62 0
66 -69 -34 0
-60 1 43 0
-41 -68 19 0
-25 -38 54 0
28 57 -40 0
-42 31 -50 0
60 67 -15 0
-7 48 46 0
48 -39 -26 0
-29 5 56 0
-22 67 20 0
12 55 60 0
-62 -23 46 0
1 40 69 0
42 8 -6 0
25 64 -43 0
