p cnf 70 290
-57 -55 42 0
-59 23 36 0
64 45 60 0
-19 -3 -61 0
-69 37 10 0
-9 17 -46 0
-3 -32 33 0
-27 -25 -40 0
4 -19 39 0
3 -28 -46 0
-16 51 19 0
46 -45 67 0
50 -42 -37 0
8 -38 55 0
-5 32 4 0
-23 -15 69 0
-41 33 65 0
64 67 -18 0
14 -32 28 0
27 5 -18 0
-5 47 -43 0
-42 58 13 0
37 -55 43 0
47 7 58 0
-13 -34 -26 0
31 -4 -52 0
34 -56 2 0
-60 42 -45 0
-32 22 70 0
34 -40 -21 0
-28 -61 -1 0
-68 38 23 0
-30 31 -21 0
61 49 -27 0
8 25 61 0
20 -66 63 0
27 8 -62 0
14 68 58 0
-41 67 70 0
24 69 -43 0
-54 -27 -44 0
-30 -20 -10 0
-15 -33 17 0
-42 -17 -31 0
-45 6 59 0
-6 64 9 0
20 -46 -32 0
42 46 34 0
29 -11 -45 0
-14 4 44 0
8 1 58 0
14 -21 -5 0
-36 40 -63 0
61 9 -43 0
20 -32 -26 0
14 -38 -26 0
37 -62 7 0
-20 8 46 0
52 8 -66 0
51 -8 3 0
-67 68 60 0
-63 33 -4 0
-60 -50 26 0
25 -59 -15 0
10 -29 15 0
-56 3 -28 0
-64 -56 42 0
-29 -13 -1 0
-19 68 18 0
5 1 -40 0
-27 -46 54 0
-26 44 39 0
46 63 28 0
-25 61 -66 0
-29 -7 46 0
38 33 -19 0
-11 -3 34 0
-59 47 -3 0
40 17 47 0
69 -23 -15 0
47 45 -16 0
61 -36 21 0
47 23 -59 0
-42 37 54 0
-5 1 -8 0
42 17 6 0
-18 16 -64 0
33 53 16 0
-2 59 29 0
-59 34 21 0
52 10 -26 0
27 6 57 0
1 10 17 0
55 16 -14 0
-22 -14 -48 0
60 27 49 0
27 -43 -4 0
20 -19 1 0
-15 -4 -52 0
11 -14 -20 0
-11 17 60 0
-38 13 -15 0
35 23 -28 0
-32 11 -47 0
-28 57 41 0
-17 29 1 0
-9 -45 56 0
50 -1 66 0
-4 -66 -64 0
-12 48 -41 0
-25 15 12 0
53 60 12 0
-12 -39 -2 0
-22 27 -65 0
-10 -6 58 0
42 -55 -40 0
24 -58 43 0
65 57 2 0
5 -60 -30 0
-69 13 24 0
19 54 39 0
-2 69 -18 0
1 59 -22 0
51 -43 -56 0
11 47 9 0
32 -41 21 0
39 -59 -51 0
-41 12 17 0
-70 23 -24 0
-59 -19 28 0
-12 23 -11 0
-6 -13 68 0
-59 46 66 0
-16 -35 54 0
-47 -27 3 0
50 67 -57 0
-29 -5 -39 0
-68 33 53 0
51 12 64 0
11 67 -8 0
34 -60 55 0
-66 -26 64 0
-64 55 42 0
7 55 -13 0
-20 17 -26 0
-22 -13 1 0
11 24 42 0
67 -69 -23 0
-20 13 4 0
60 36 30 0
46 -13 61 0
-22 -31 -43 0
-62 -24 31 0
-65 38 41 0
-14 -33 43 0
-15 37 -11 0
-44 -43 34 0
61 23 35 0
-66 -18 6 0
-2 -35 -20 0
-16 -69 2 0
50 2 20 0
-70 -52 18 0
-45 -44 -26 0
18 42 22 0
62 -54 -30 0
-20 69 68 0
68 27 -60 0
-13 -11 -30 0
-53 11 -21 0
23 -63 -38 0
60 -6 66 0
1 -6 -49 0
-46 -61 17 0
56 43 -62 0
-2 -64 -18 0
-65 -55 -58 0
-36 -22 -8 0
-27 -65 -21 0
-11 65 -7 0
49 10 -20 0
-52 39 -62 0
-61 11 -35 0
-1 17 70 0
-66 -61 68 0
-32 -66 33 0
3 34 -16 0
24 -49 25 0
-32 -2 63 0
-15 -60 -68 0
62 -13 65 0
57 27 -19 0
43 -49 3 0
-32 43 12 0
2 65 -22 0
-26 51 -8 0
3 46 -43 0
31 -59 -27 0
3 62 49 0
-22 10 62 0
47 5 -14 0
-52 12 -47 0
-54 47 -14 0
-23 26 70 0
-43 39 -68 0
-29 -67 -51 0
-29 70 46 0
-49 -46 8 0
61 -22 -29 0
-25 39 -41 0
-64 -45 43 0
-44 38 28 0
-44 -25 -21 0
-23 25 59 0
-52 13 -32 0
-66 -2 69 0
-43 -54 -9 0
50 -19 17 0
24 -26 -47 0
-20 -36 34 0
-64 31 57 0
67 -2 12 0
49 -27 50 0
-69 49 29 0
40 -25 53 0
-18 21 67 0
9 19 17 0
-63 1 52 0
61 -13 -18 0
-56 -20 25 0
-40 59 17 0
30 46 -56 0
48 3 -39 0
-62 -18 33 0
-42 -6 50 0
-61 -46 -17 0
-54 65 -16 0
63 62 -33 0
68 -1 37 0
50 42 6 0
5 -26 -32 0
-43 21 -47 0
-64 40 -13 0
46 -1 54 0
-6 -41 -20 0
70 49 -52 0
-24 23 42 0
9 20 -39 0
-50 -65 -59 0
35 22 18 0
-52 39 -56 0
-5 45 -59 0
-5 -7 33 0
-49 22 -28 0
35 20 -62 0
-57 58 -3 0
-14 44 -59 0
-32 25 57 0
38 -65 -46 0
-23 -4 -36 0
-54 -63 -70 0
44 -50 -47 0
-13 68 8 0
35 -21 -4 0
-66 41 62 0
40 31 -25 0
-50 36 -43 0
69 48 -44 0
49 -10 -54 0
-36 -58 -14 0
40 -23 64 0
-59 8 -68 0
37 -12 -69 0
-68 29 -69 0
3 14 47 0
65 -35 -43 0
-64 60 67 0
-43 22 -44 0
-27 38 53 0
35 -32 -45 0
-53 -15 -49 0
29 -23 -14 0
55 2 65 0
-26 -70 -64 0
-25 35 -16 0
50 -1 61 0
55 -58 48 0
40 39 16 0
-18 -47 39 0
-27 -26 -68 0
