p cnf 70 260
-68 -69 -8 0
4 -62 31 0
4 -43 51 0
38 39 26 0
16 2 14 0
33 -37 -57 0
26 15 52 0
1 -7 -70 0
40 -25 -51 0
11 -23 30 0
-56 38 46 0
19 22 40 0
-47 -19 38 0
-62 40 39 0
39 -35 32 0
51 52 -17 0
-32 -25 -7 0
-9 -12 44 0
3 43 8 0
-61 25 14 0
-55 -51 36 0
59 -9 12 0
-18 -24 -39 0
-22 3 69 0
-37 -42 -63 0
1 50 38 0
-40 -43 14 0
-28 8 -53 0
48 -24 -21 0
-37 20 30 0
15 3 -7 0
54 -4 -14 0
-61 27 -37 0
70 8 19 0
60 12 -31 0
39 27 -17 0
-26 -68 -32 0
6 54 -14 0
14 13 4 0
33 -54 67 0
-38 -23 -31 0
-37 -28 -58 0
-66 -1 23 0
68 44 -36 0
-19 22 -65 0
-5 -6 -21 0
-35 -57 -27 0
43 15 47 0
-30 -52 51 0
-4 24 -43 0
61 54 53 0
32 33 -44 0
-10 36 -70 0
31 16 -10 0
-22 -3 35 0
-10 -65 -26 0
-50 -58 -34 0
3 64 15 0
-33 -17 -27 0
32 -36 31 0
59 -49 -57 0
55 65 57 0
26 63 -38 0
-29 15 -25 0
47 -33 22 0
-22 -48 -29 0
68 -2 -20 0
-32 -15 -63 0
2 64 -61 0
-4 -52 16 0
-39 -57 -43 0
36 64 30 0
-9 -57 -61 0
-61 -8 18 0
24 42 -15 0
-50 11 5 0
34 -21 -2 0
66 -19 -8 0
40 35 -7 0
16 -65 57 0
-41 37 50 0
-49 11 39 0
-31 -1 34 0
-24 -46 -56 0
69 16 -47 0
-65 10 62 0
32 -27 30 0
45 -51 58 0
-65 23 28 0
42 -14 10 0
-3 10 45 0
-36 -40 26 0
66 -4 42 0
25 -66 64 0
-44 11 -10 0
62 -31 -46 0
40 21 57 0
-2 32 -63 0
-34 -27 3 0
43 61 -39 0
-59 25 61 0
15 21 -16 0
5 33 1 0
-5 -8 -62 0
50 36 -26 0
63 -28 -30 0
-49 -16 68 0
9 -32 -55 0
-9 -36 -57 0
19 -55 45 0
29 -17 -45 0
-41 -24 -65 0
-50 -21 -32 0
-30 19 -45 0
-11 -46 -61 0
17 -16 58 0
37 -64 47 0
66 65 -34 0
64 -34 50 0
4 -69 49 0
49 66 45 0
66 -70 69 0
1 9 19 0
38 49 -23 0
30 -17 -57 0
18 -35 11 0
-44 -13 -57 0
-40 57 -60 0
25 2 49 0
-22 -55 63 0
-66 -68 25 0
56 46 69 0
-19 -44 -38 0
61 -2 -48 0
-19 -15 65 0
70 -1 12 0
40 -37 -18 0
-51 9 25 0
32 -17 -1 0
27 68 -57 0
9 34 16 0
47 62 -50 0
39 57 -62 0
20 -58 41 0
63 -62 41 0
-70 -9 42 0
3 46 10 0
-25 67 5 0
-64 63 -69 0
27 -49 26 0
-60 -49 37 0
64 -19 16 0
68 58 -8 0
39 -27 1 0
42 -63 54 0
-39 11 1 0
22 27 55 0
68 63 -11 0
-33 39 30 0
-39 28 -49 0
46 20 62 0
-4 -51 -69 0
-28 36 -4 0
17 -7 63 0
-32 28 47 0
-61 -58 -15 0
-51 14 21 0
69 47 -46 0
44 49 -8 0
-31 18 -49 0
-45 19 5 0
-22 -49 -46 0
69 -37 -48 0
37 -13 64 0
-40 32 -43 0
-67 20 -22 0
-41 -51 22 0
17 -23 -47 0
56 15 -50 0
-68 -44 38 0
-49 42 -40 0
-25 40 10 0
8 -29 47 0
27 -18 45 0
-30 41 51 0
53 41 26 0
35 -26 -60 0
-67 -61 70 0
65 -45 -21 0
-20 -14 24 0
10 -58 -30 0
33 40 -50 0
61 -53 40 0
-22 -1 -27 0
-33 65 -47 0
-5 64 -67 0
-70 -9 -55 0
-38 62 -44 0
51 -48 -29 0
-10 60 69 0
-50 -56 45 0
-23 -70 -59 0
-57 -41 35 0
-48 -67 -45 0
43 50 21 0
-37 70 -56 0
3 48 16 0
67 30 -49 0
1 66 44 0
-37 -4 -22 0
17 57 42 0
46 55 33 0
57 -51 -28 0
61 60 -68 0
11 65 -10 0
36 3 14 0
-52 -60 67 0
27 9 10 0
-63 8 35 0
23 -44 -18 0
-18 -61 64 0
-13 59 30 0
-14 -3 68 0
63 -21 9 0
5 13 -50 0
42 -31 -52 0
-56 -38 -51 0
-56 63 -28 0
37 19 -51 0
38 12 14 0
-65 -46 31 0
-53 29 -9 0
57 -25 14 0
-10 -54 69 0
-55 29 48 0
68 -57 -55 0
18 -69 -6 0
-21 47 25 0
-3 -28 66 0
29 -69 20 0
6 -14 -19 0
13 41 -8 0
-23 -68 34 0
-34 -62 -30 0
-51 -54 -44 0
46 -59 50 0
-41 17 -25 0
66 -44 48 0
7 30 -56 0
-36 2 -61 0
-63 15 -23 0
-48 16 44 0
56 58 51 0
-20 -54 64 0
-20 -42 -59 0
1 -51 -54 0
58 6 -35 0
13 -37 -23 0
5 -40 -70 0
65 -8 -40 0
