p cnf 70 300
-24 -58 37 0
-24 5 -63 0
24 -36 4 0
34 17 12 0
36 62 23 0
1 -57 50 0
47 -61 67 0
66 -48 62 0
62 46 -40 0
-15 -56 -68 0
-41 -60 65 0
37 -69 62 0
4 30 -68 0
49 -38 -57 0
-64 -35 48 0
-16 52 20 0
12 -48 -14 0
-21 -9 46 0
-22 -69 -65 0
51 -49 -25 0
61 16 -65 0
19 55 -5 0
38 30 21 0
49 20 68 0
50 -66 31 0
-32 65 19 0
58 62 47 0
57 35 -10 0
16 -26 24 0
27 -51 53 0
-44 62 24 0
44 57 -13 0
51 4 64 0
36 21 51 0
50 4 14 0
27 9 -60 0
-3 -6 64 0
-30 -54 56 0
69 58 7 0
-50 -1 68 0
-56 -43 -34 0
36 2 63 0
-52 -2 -57 0
-10 11 66 0
56 -47 37 0
42 -66 -30 0
-55 48 42 0
6 -34 61 0
-30 -15 68 0
-12 6 -34 0
16 -27 -32 0
52 -4 -54 0
13 61 -38 0
-24 28 -29 0
51 -57 6 0
-55 -8 -29 0
68 -46 -55 0
-8 41 19 0
35 -11 36 0
24 25 62 0
-22 42 29 0
-52 36 66 0
54 -13 -6 0
13 25 63 0
-49 -66 -7 0
-36 5 59 0
-47 -14 1 0
-35 -52 22 0
-2 -66 19 0
-20 63 -22 0
-28 63 -57 0
-54 -11 45 0
4 6 36 0
-64 -66 70 0
69 -58 23 0
67 -59 17 0
11 -18 -16 0
32 -7 -22 0
-21 46 -32 0
2 -35 61 0
3 15 -10 0
4 27 -55 0
-17 69 -32 0
-2 13 7 0
-19 59 -17 0
24 -6 -51 0
69 -47 27 0
66 64 -10 0
45 47 41 0
27 -5 -20 0
33 56 68 0
66 -25 -58 0
37 -38 -60 0
25 8 9 0
34 -44 -36 0
-57 4 21 0
36 20 50 0
-50 -32 -57 0
45 31 68 0
29 68 10 0
-28 51 60 0
-64 -1 57 0
42 -32 -28 0
52 40 37 0
-14 -24 60 0
62 30 -46 0
-42 50 -9 0
21 -43 -28 0
39 -12 13 0
-36 -70 40 0
7 -59 58 0
-9 22 -6 0
-3 70 -48 0
8 48 -9 0
-57 47 10 0
-38 41 -10 0
10 -4 -17 0
2 -5 -53 0
-12 8 55 0
4 51 -18 0
31 62 -25 0
67 55 1 0
52 19 -6 0
17 -1 -22 0
53 61 -64 0
17 9 -64 0
60 -41 57 0
24 48 63 0
-64 -66 -49 0
-14 -16 51 0
1 45 22 0
46 29 -50 0
56 -20 -51 0
-9 -28 26 0
62 -46 31 0
-42 -43 17 0
36 47 69 0
17 25 51 0
3 64 -14 0
-22 62 67 0
-37 35 -22 0
13 12 34 0
57 50 11 0
-37 -39 -46 0
68 11 -52 0
50 43 -69 0
51 -5 -43 0
2 -44 50 0
56 -23 -58 0
18 9 -29 0
32 3 -26 0
17 10 41 0
24 70 11 0
19 24 -54 0
11 -33 38 0
22 7 -11 0
-9 4 14 0
-9 37 14 0
-58 -24 -47 0
-43 -11 -54 0
-38 69 -27 0
36 -16 -14 0
-38 16 57 0
-58 54 68 0
-43 -6 59 0
15 -49 -60 0
-46 64 16 0
-36 -7 -44 0
-33 35 62 0
7 21 -1 0
-44 -17 -12 0
-39 16 48 0
-66 -3 12 0
-63 -3 -29 0
-45 -14 -17 0
-2 16 -33 0
-8 26 64 0
-12 -62 -36 0
49 63 44 0
64 13 -62 0
40 45 16 0
-48 -25 -46 0
-68 54 32 0
32 -16 19 0
42 -24 28 0
-48 -10 -60 0
-59 20 -33 0
25 -27 -16 0
-61 18 -16 0
-70 -45 28 0
26 3 -17 0
43 15 -50 0
-68 -23 -57 0
-29 54 -50 0
21 -4 63 0
49 13 26 0
-1 52 39 0
52 -12 31 0
20 -33 2 0
-18 5 -47 0
-39 -18 26 0
61 -43 30 0
36 -45 -64 0
63 -9 -8 0
51 -26 -65 0
29 -64 -60 0
48 -7 25 0
-58 66 13 0
-14 -16 -32 0
47 -20 58 0
-24 21 16 0
-43 -26 10 0
-62 61 12 0
16 39 23 0
44 -43 -67 0
16 24 48 0
-43 -4 -16 0
3 -47 -42 0
53 33 66 0
10 -18 -2 0
-7 -54 -13 0
53 34 -38 0
-39 -29 26 0
37 -61 -36 0
52 18 -9 0
-41 -8 58 0
-7 5 -24 0
-2 -23 11 0
-23 -66 5 0
-27 65 -29 0
69 1 -43 0
23 -19 -12 0
-66 25 41 0
-1 47 27 0
10 8 53 0
4 -49 8 0
-18 42 30 0
-44 69 -11 0
-51 20 12 0
33 52 47 0
62 69 17 0
38 -66 -37 0
20 6 -61 0
-33 64 -67 0
30 3 -51 0
-14 -67 7 0
-46 54 27 0
29 -46 -24 0
56 35 -7 0
44 -22 -63 0
-14 -22 -26 0
24 -47 -44 0
70 59 16 0
32 -31 55 0
32 -27 37 0
-45 -16 -46 0
-57 -45 27 0
-50 -11 -58 0
48 -4 28 0
-64 56 69 0
-66 -50 11 0
9 -16 48 0
22 -61 -66 0
-50 66 51 0
2 50 5 0
63 54 29 0
21 63 -30 0
24 -47 2 0
59 -13 36 0
-6 -26 -63 0
13 -53 -64 0
4 -40 16 0
-50 44 43 0
70 66 5 0
-67 12 -3 0
-31 42 60 0
3 -27 -21 0
-40 -17 70 0
58 6 1 0
-33 5 59 0
-31 -35 -23 0
-67 54 39 0
-31 -2 -43 0
10 60 31 0
-51 -12 31 0
11 -1 37 0
-33 31 14 0
-39 20 43 0
28 -21 -41 0
12 10 62 0
-39 -58 7 0
60 -40 42 0
-36 65 -26 0
22 -42 38 0
-9 -8 64 0
-16 -29 26 0
-56 -51 49 0
7 -33 45 0
-17 -38 -66 0
-44 -60 -21 0
