p cnf 70 270
-13 -6 11 0
-22 -28 31 0
-70 33 -12 0
-7 65 -55 0
50 28 -32 0
-66 -57 -41 0
-44 13 -27 0
-52 -4 56 0
37 34 -11 0
-4 27 29 0
-57 -40 42 0
-58 -7 -60 0
-19 44 -58 0
5 66 -20 0
-19 58 -36 0
-27 41 -56 0
-23 -31 30 0
-14 47 44 0
6 32 69 0
-34 56 16 0
-60 40 13 0
-55 64 11 0
-43 11 -42 0
-13 -57 -24 0
14 11 -34 0
-57 -56 -33 0
-14 -4 -32 0
-10 -57 48 0
-7 20 -68 0
30 -28 -54 0
61 20 34 0
-68 -58 63 0
68 -55 5 0
43 -50 17 0
-13 -35 33 0
31 -19 39 0
-61 46 22 0
-15 38 -69 0
-67 59 -60 0
17 -7 21 0
62 -32 -35 0
-21 -55 -45 0
2 39 63 0
-37 69 28 0
55 48 45 0
-61 -13 -69 0
33 -47 -49 0
51 -7 -64 0
50 -54 13 0
34 -59 51 0
68 -28 -39 0
27 16 10 0
55 14 -56 0
-39 -25 -18 0
-53 12 -6 0
55 9 64 0
-70 34 57 0
20 -26 -11 0
-42 -62 -8 0
60 34 -66 0
68 -45 69 0
68 -69 -63 0
9 37 -26 0
68 -23 62 0
19 -58 53 0
53 13 -38 0
-22 52 36 0
-48 8 -18 0
-52 53 44 0
-7 37 53 0
-33 66 36 0
-8 14 -65 0
-68 -49 -58 0
-45 37 15 0
-2 62 66 0
8 12 -36 0
25 -18 13 0
-58 67 -69 0
62 45 -32 0
-7 -33 -16 0
-32 70 -68 0
28 -12 -46 0
-3 -24 62 0
-57 -21 31 0
-42 12 14 0
-40 -19 -70 0
25 59 58 0
-49 -28 -62 0
16 -17 10 0
51 70 37 0
58 41 35 0
-58 51 53 0
41 -9 -21 0
2 12 -6 0
37 30 21 0
-63 -25 55 0
-24 68 -62 0
32 -28 18 0
46 -50 -10 0
-32 17 -48 0
34 62 39 0
24 -20 47 0
52 -20 -17 0
-65 -67 7 0
-18 4 -54 0
-70 -60 -43 0
5 -37 -2 0
-18 51 -35 0
-61 50 -47 0
-27 -40 28 0
42 67 25 0
-1 -36 40 0
-41 48 54 0
-25 -50 -57 0
56 -48 14 0
19 58 29 0
20 -43 -59 0
-70 -16 68 0
46 -48 14 0
41 21 -54 0
-63 -28 35 0
-62 -69 -23 0
65 -57 -62 0
54 -16 -22 0
-45 35 -3 0
-10 -57 -33 0
19 -13 -63 0
40 65 45 0
57 12 -48 0
-2 -17 22 0
-4 -21 -37 0
58 -14 64 0
52 6 -9 0
33 4 -9 0
15 -49 -16 0
-69 10 60 0
-52 40 -32 0
21 -50 35 0
50 62 -64 0
29 -10 44 0
-39 -44 -54 0
9 -62 63 0
-32 5 -25 0
35 -48 -50 0
35 18 -61 0
38 45 11 0
-42 -28 61 0
-24 28 34 0
-24 49 2 0
-62 -4 11 0
57 60 53 0
8 -64 57 0
14 -1 -51 0
-2 -23 40 0
-46 66 -5 0
-49 -67 41 0
-35 -10 23 0
-45 -3 5 0
2 42 -58 0
10 -44 25 0
-57 44 -67 0
-24 35 30 0
62 12 50 0
-11 -12 1 0
-25 33 69 0
26 20 -64 0
24 32 6 0
-26 60 67 0
43 47 -44 0
61 39 -66 0
-42 15 -11 0
64 -58 14 0
-70 17 -37 0
22 67 -7 0
20 34 61 0
16 64 -39 0
-60 -23 31 0
-65 51 28 0
50 -67 -64 0
-37 -1 -21 0
-64 -44 -1 0
-36 -23 -34 0
-16 -44 -62 0
-42 30 -37 0
66 -39 55 0
-2 -40 -11 0
-4 70 13 0
5 -6 -10 0
-61 57 23 0
-59 67 -23 0
-17 7 36 0
-59 42 6 0
60 -61 5 0
-66 36 -10 0
42 -30 -43 0
-37 -48 -6 0
-45 48 -41 0
-58 -23 -56 0
23 -10 -47 0
-59 -40 -52 0
45 25 -7 0
4 -7 19 0
53 -68 -58 0
33 -54 30 0
-27 -44 -29 0
41 -50 42 0
-50 62 1 0
39 -38 -27 0
37 6 -66 0
61 52 28 0
-62 -67 61 0
20 5 30 0
-65 -17 43 0
54 -3 -12 0
12 2 -33 0
-28 43 18 0
-38 33 30 0
-8 50 26 0
64 -52 3 0
5 8 -6 0
-9 20 -3 0
21 2 67 0
33 61 -36 0
-60 51 -70 0
49 -66 -23 0
-52 50 -7 0
24 -66 -34 0
61 -13 34 0
68 66 7 0
57 -27 48 0
16 40 -50 0
8 -66 56 0
-18 -34 60 0
36 -5 14 0
-64 22 51 0
7 -67 35 0
65 28 -4 0
14 -40 56 0
-36 -28 2 0
41 -2 -47 0
-30 -10 -61 0
9 5 25 0
-40 62 14 0
-58 55 4 0
-65 -6 -62 0
62 -37 -56 0
-45 -1 23 0
-53 -38 2 0
70 -61 53 0
58 -44 42 0
18 22 34 0
57 26 37 0
-26 69 52 0
26 -16 28 0
65 57 42 0
-18 53 15 0
-55 16 -35 0
30 26 5 0
28 8 -58 0
-37 -5 -62 0
-37 13 -33 0
64 57 -67 0
-34 -39 -12 0
-31 -24 -68 0
-16 -28 -67 0
-12 19 -53 0
38 -39 -33 0
52 -10 51 0
-30 21 -7 0
42 -40 68 0
