p cnf 70 275
-7 -11 -2 0
25 11 -47 0
44 -32 39 0
27 8 32 0
66 17 -33 0
57 -56 3 0
-69 5 60 0
-52 -62 65 0
60 -32 -24 0
61 34 -38 0
15 -56 -62 0
-10 43 20 0
69 13 -67 0
-41 1 36 0
22 -35 -26 0
61 63 -43 0
67 -50 33 0
42 37 -16 0
-21 -64 37 0
22 39 21 0
-49 -3 -54 0
28 39 -29 0
-13 68 -34 0
67 68 -60 0
46 -27 -41 0
-69 -63 59 0
-60 62 -36 0
39 -55 -12 0
16 -38 41 0
42 -16 56 0
42 66 -39 0
-21 -24 -39 0
57 -27 -8 0
59 -53 -13 0
59 -51 67 0
8 48 -1 0
-37 44 -38 0
55 24 -8 0
15 21 2 0
-14 35 67 0
-41 -21 64 0
40 -62 21 0
6 22 19 0
-37 -16 -19 0
36 -17 -62 0
39 32 -23 0
4 18 -20 0
19 52 -46 0
50 5 18 0
48 -49 -17 0
38 -45 -52 0
-29 58 67 0
-12 7 -66 0
56 -34 30 0
-24 -53 44 0
-44 12 -46 0
-64 -2 59 0
-39 -67 68 0
-20 51 -40 0
1 -11 -35 0
-27 58 -15 0
-17 49 32 0
64 -18 -20 0
-4 61 -42 0
-15 17 61 0
58 -56 -21 0
44 50 20 0
26 16 63 0
15 9 -48 0
-40 59 -57 0
-54 -65 7 0
58 63 47 0
26 58 3 0
-51 58 -8 0
13 32 28 0
22 21 51 0
-35 28 47 0
12 9 -50 0
46 -11 -34 0
45 31 -8 0
9 68 61 0
58 -30 32 0
33 32 -2 0
70 16 -51 0
22 14 -53 0
-43 36 -53 0
31 -39 67 0
8 -48 10 0
-70 -69 -47 0
-9 -67 -39 0
10 48 18 0
-46 -18 -34 0
4 44 -62 0
-1 63 -5 0
45 57 -50 0
-27 70 52 0
-39 -2 -21 0
6 68 -38 0
23 -18 -25 0
-53 64 -48 0
41 -59 22 0
-10 4 -68 0
-25 -41 -48 0
-16 -62 -67 0
-13 57 42 0
49 -66 -30 0
-3 -25 -34 0
-8 -10 -29 0
-21 4 -15 0
-60 10 -22 0
40 -61 -52 0
37 51 41 0
8 21 -68 0
-59 -22 43 0
-6 37 -19 0
1 -6 -45 0
-65 -19 -13 0
40 62 27 0
68 54 51 0
65 20 -21 0
46 54 27 0
66 46 29 0
5 -35 26 0
49 42 -68 0
-37 12 -16 0
55 25 14 0
48 5 9 0
60 -43 10 0
32 -51 -69 0
20 5 -48 0
-13 27 -21 0
43 35 66 0
8 -4 -69 0
-11 -18 -6 0
49 61 1 0
35 -26 50 0
60 -32 15 0
47 -61 -50 0
36 57 1 0
15 68 -16 0
-33 25 -69 0
68 -30 -35 0
-22 -25 -32 0
15 -61 -33 0
-26 65 43 0
-26 35 60 0
24 -10 -13 0
31 -38 58 0
-13 34 -37 0
13 30 -14 0
40 -28 46 0
31 51 -14 0
-46 34 63 0
64 15 70 0
-60 55 -14 0
-28 -55 62 0
-19 56 70 0
-37 -47 -62 0
61 42 -51 0
-69 -27 -19 0
42 -19 39 0
23 11 49 0
18 54 -22 0
-11 -4 69 0
-17 26 -60 0
-59 62 -48 0
-35 65 67 0
7 27 -25 0
65 -17 18 0
-22 13 -46 0
-52 32 -62 0
-63 2 -28 0
-38 -40 -30 0
-30 64 -9 0
-6 11 1 0
10 -3 -59 0
70 -39 58 0
24 64 26 0
24 -44 -32 0
-42 22 40 0
-11 1 -27 0
-4 50 -43 0
24 -67 -68 0
-30 50 55 0
-9 -33 54 0
-30 64 -34 0
16 65 35 0
3 -44 63 0
25 65 -23 0
-25 6 40 0
-43 23 12 0
-67 21 27 0
53 -36 -67 0
45 -69 -20 0
-18 2 -61 0
53 21 -65 0
2 -5 64 0
-26 25 53 0
28 -19 15 0
-63 5 -64 0
-45 -22 36 0
-49 -27 22 0
-48 65 -8 0
5 4 69 0
29 -16 -41 0
22 -53 -1 0
38 -29 -30 0
2 -11 31 0
-31 40 1 0
-70 43 -19 0
19 13 39 0
-4 10 -21 0
35 68 12 0
-15 3 -27 0
-4 69 65 0
-60 28 37 0
6 -59 9 0
10 59 13 0
52 33 -3 0
2 52 -50 0
27 7 9 0
21 17 -63 0
9 65 3 0
40 23 -15 0
-70 -43 -10 0
-1 -19 -59 0
-34 31 -51 0
36 69 -4 0
-13 20 -9 0
-34 -7 -57 0
44 -34 27 0
-9 68 7 0
-23 -10 70 0
4 -14 -8 0
5 15 -9 0
-22 -57 -44 0
-65 41 -4 0
56 26 20 0
42 63 -1 0
-39 -35 -7 0
-61 63 -66 0
10 24 18 0
40 -67 4 0
-27 -8 -6 0
-25 47 30 0
-6 64 22 0
50 -31 -52 0
-35 -37 -62 0
-68 28 -23 0
2 -67 13 0
-2 32 48 0
68 -26 38 0
-61 -38 -52 0
-52 24 67 0
41 29 -4 0
1 69 70 0
-60 36 -3 0
17 25 42 0
-40 -33 -32 0
33 70 23 0
-11 66 48 0
-43 31 66 0
-61 -36 -30 0
62 -63 -22 0
-21 -36 12 0
-19 -61 35 0
-40 10 -62 0
-53 -11 14 0
9 -19 44 0
-12 -17 65 0
54 -45 37 0
-31 11 39 0
-40 53 -16 0
-65 51 16 0
3 7 34 0
