p cnf 70 265
48 -56 1 0
-64 33 -43 0
-23 -45 42 0
12 -43 -37 0
70 -8 44 0
-25 -9 -7 0
-23 -30 62 0
41 36 13 0
70 47 20 0
-8 -39 -28 0
53 12 55 0
-1 63 -60 0
-19 3 -18 0
42 11 67 0
-36 49 16 0
69 -54 42 0
-22 -65 45 0
68 -16 30 0
16 -15 39 0
-2 18 50 0
-38 -30 67 0
58 47 55 0
-41 -46 20 0
-30 45 57 0
4 23 -41 0
-28 16 35 0
-50 68 -45 0
-57 65 26 0
19 -64 62 0
14 27 -28 0
-48 -23 -63 0
-37 -23 -17 0
45 61 -46 0
45 -3 6 0
-63 53 -39 0
-53 -17 48 0
-19 -36 -3 0
67 37 -2 0
9 22 -21 0
-21 -63 -30 0
-13 31 26 0
58 49 18 0
-46 45 -26 0
-12 -63 -66 0
-32 58 22 0
-18 36 53 0
66 45 41 0
50 52 -57 0
67 -15 37 0
-52 33 -57 0
20 -46 -63 0
-41 55 -8 0
30 11 42 0
-37 40 -26 0
-49 46 -29 0
32 -57 8 0
-2 61 -22 0
50 36 -4 0
-22 33 32 0
-43 28 69 0
58 55 -35 0
70 -10 -56 0
69 -62 13 0
36 -44 -23 0
-36 69 -23 0
-11 -47 -65 0
54 42 -64 0
-41 -61 44 0
-54 39 -31 0
68 58 -17 0
-3 61 2 0
39 52 41 0
-15 67 30 0
26 34 3 0
-23 65 49 0
50 68 -65 0
-26 25 54 0
-28 41 44 0
-35 6 67 0
60 58 -65 0
39 -30 22 0
-62 -36 14 0
64 44 -48 0
5 8 32 0
15 -28 49 0
18 -32 43 0
46 1 -28 0
-28 -38 66 0
-10 -28 14 0
-2 13 -28 0
-13 11 31 0
55 60 -39 0
-35 50 -68 0
-12 -70 -17 0
-59 -49 4 0
46 55 -70 0
-10 56 6 0
66 -3 8 0
-36 5 53 0
-49 10 13 0
-39 -38 -40 0
62 6 2 0
-60 -42 -45 0
37 5 54 0
54 47 53 0
-5 -49 -12 0
32 58 37 0
-60 -15 53 0
-23 -24 45 0
-56 -10 -5 0
-16 61 -58 0
-19 42 9 0
-64 26 55 0
33 -32 -49 0
52 54 48 0
-61 26 38 0
5 -65 30 0
54 62 -13 0
29 -36 -45 0
-59 51 -55 0
8 -64 -54 0
-42 55 22 0
70 22 5 0
-13 53 -22 0
65 35 54 0
36 8 -40 0
-31 33 -63 0
58 -18 -22 0
-22 -3 -56 0
7 -21 56 0
52 -48 65 0
-8 -9 -43 0
-51 -65 67 0
65 -22 63 0
-34 -45 63 0
27 -16 -28 0
-50 -68 -67 0
-37 58 -54 0
39 -67 -10 0
-57 51 -4 0
-17 5 -69 0
-49 53 -41 0
61 51 21 0
-50 36 -11 0
-9 -33 4 0
12 2 -4 0
-19 15 -8 0
-19 -31 -48 0
-31 -41 -13 0
17 -40 -56 0
64 -34 27 0
-31 -49 33 0
41 22 -10 0
-56 70 -55 0
31 -65 -69 0
-6 24 27 0
24 -48 50 0
64 58 59 0
28 24 9 0
-48 22 -11 0
53 49 41 0
10 -34 50 0
30 -19 -29 0
-41 -66 -4 0
-23 -70 30 0
-11 -55 36 0
-17 37 58 0
1 19 -10 0
-36 50 -47 0
-15 -25 -3 0
-45 -47 -66 0
-58 -24 -32 0
-4 53 -58 0
-20 36 53 0
15 33 -29 0
42 10 27 0
-59 16 -42 0
70 -23 29 0
-4 69 -21 0
-21 54 55 0
38 6 35 0
58 -62 -41 0
45 -14 41 0
-37 -5 42 0
-32 35 -6 0
30 11 31 0
22 50 33 0
-2 -69 -35 0
30 65 -4 0
-21 -5 19 0
67 -69 -5 0
-54 25 -20 0
-68 -50 49 0
-40 44 -13 0
22 -4 -63 0
53 -36 61 0
-30 -11 36 0
-63 52 53 0
56 43 24 0
29 -18 33 0
7 -48 -19 0
-52 24 27 0
-1 -52 -23 0
46 15 6 0
68 -43 60 0
23 -65 -67 0
-35 -55 10 0
-32 44 57 0
-6 -35 -40 0
28 17 -7 0
-20 -8 62 0
68 -25 1 0
-32 4 24 0
36 -58 30 0
-6 3 -25 0
-7 -36 -51 0
44 -50 69 0
57 -53 24 0
68 -36 -67 0
-2 -50 -30 0
20 -32 -14 0
57 45 3 0
38 -1 19 0
19 59 42 0
61 -53 2 0
2 -59 -7 0
-29 -62 -35 0
27 36 -56 0
61 30 -59 0
-46 44 -22 0
16 -64 43 0
12 -68 34 0
64 -68 -28 0
-3 36 31 0
-11 -41 50 0
-37 46 40 0
49 68 63 0
-31 -50 29 0
8 40 69 0
25 4 -70 0
-21 47 39 0
-63 53 -13 0
-43 -15 38 0
39 21 58 0
-8 -5 54 0
63 49 42 0
32 4 23 0
-57 -50 -31 0
-56 18 -38 0
-47 -50 -26 0
59 -22 -55 0
-49 -4 -16 0
-46 65 -31 0
-68 49 30 0
-6 14 -38 0
-4 -23 -38 0
-42 4 -30 0
2 15 61 0
-66 -5 2 0
11 -16 -70 0
58 -47 38 0
-4 7 -22 0
31 -41 -22 0
-32 -63 -39 0
69 -7 25 0
