p cnf 70 260
-23 -19 42 0
59 -63 -60 0
21 20 -45 0
8 3 -48 0
41 19 11 0
-57 20 -10 0
63 59 -48 0
62 21 65 0
6 58 38 0
4 20 -29 0
-6 -64 68 0
31 42 -21 0
65 69 -53 0
27 35 -63 0
-21 35 -58 0
28 35 41 0
-24 54 68 0
-46 10 -28 0
-68 -44 -29 0
35 -61 -11 0
32 13 41 0
48 53 36 0
-42 -67 -28 0
43 10 65 0
40 70 -46 0
3 66 -2 0
-50 -57 17 0
-58 57 -64 0
47 -29 31 0
-42 -8 -56 0
-17 -31 20 0
-51 -7 -11 0
-67 -30 12 0
23 30 20 0
-41 -60 31 0
41 -55 36 0
-34 36 28 0
-8 52 61 0
9 27 53 0
-27 -44 11 0
59 -66 18 0
-45 -52 53 0
1 43 25 0
-15 -64 54 0
27 26 -16 0
20 -67 31 0
-47 -21 4 0
-63 -15 -12 0
36 59 -3 0
-29 46 19 0
-35 -16 -15 0
65 -19 68 0
12 -68 -28 0
-65 8 -39 0
60 26 -32 0
18 22 46 0
26 -23 -54 0
-28 -52 39 0
8 53 47 0
60 38 -58 0
-17 3 27 0
21 24 -70 0
9 20 65 0
-14 -52 -66 0
8 47 -17 0
-13 -10 -4 0
42 -21 -30 0
-66 30 18 0
70 50 19 0
-26 61 10 0
-48 11 -39 0
28 -13 27 0
-67 -47 59 0
-14 -50 -59 0
51 -40 9 0
-47 59 -65 0
51 -36 59 0
36 31 14 0
45 -34 -68 0
13 61 43 0
45 -66 -50 0
31 28 -70 0
35 24 -13 0
60 28 42 0
-19 -2 45 0
42 2 -32 0
36 -60 39 0
-56 5 -60 0
-17 -53 16 0
22 70 1 0
64 23 19 0
23 60 35 0
65 44 13 0
-70 -48 12 0
24 30 -32 0
47 -28 -8 0
41 19 -30 0
-28 -30 19 0
-43 -64 48 0
-35 -16 30 0
-20 33 23 0
69 -14 60 0
-30 13 -12 0
30 31 -4 0
54 47 -55 0
-58 -28 -27 0
-24 56 28 0
2 -29 -7 0
55 61 -64 0
21 -13 45 0
-34 -58 -18 0
46 -53 55 0
9 15 4 0
-35 67 38 0
18 -70 14 0
29 51 59 0
46 26 -12 0
-54 -49 -22 0
-22 -36 -62 0
70 26 68 0
-11 -51 40 0
65 -32 -48 0
62 -19 46 0
64 57 -54 0
13 -61 60 0
-60 25 -35 0
25 -23 -24 0
3 -46 61 0
-34 15 -64 0
29 64 -31 0
-28 18 -17 0
3 -70 63 0
-21 9 51 0
57 -49 70 0
-44 43 -14 0
60 -32 28 0
68 53 -25 0
32 -38 -5 0
54 -3 51 0
60 -59 53 0
31 -23 4 0
35 4 37 0
-8 -47 -57 0
-19 -41 42 0
-66 -24 36 0
-46 51 9 0
-57 -30 -37 0
23 -24 -3 0
-57 -27 20 0
3 8 -28 0
40 -10 37 0
-51 42 1 0
8 22 -9 0
-43 -21 -39 0
60 -15 29 0
-56 61 -18 0
31 -9 54 0
21 31 -33 0
-50 6 34 0
-64 5 36 0
-69 20 58 0
-60 16 -22 0
-56 4 45 0
18 -41 22 0
51 -13 -65 0
21 46 -43 0
-11 52 -55 0
14 52 -22 0
-56 9 -66 0
-45 49 69 0
-33 67 -47 0
-58 9 20 0
-54 16 -57 0
-46 -60 -37 0
-17 -36 -45 0
18 29 4 0
11 -69 -25 0
29 -4 -2 0
-65 39 38 0
-62 13 58 0
23 -33 -16 0
-64 7 48 0
-41 -62 -38 0
30 56 34 0
-65 7 57 0
-17 -61 69 0
30 26 54 0
-55 -50 -9 0
36 -35 -39 0
13 -68 -10 0
-15 28 -46 0
59 66 69 0
9 53 42 0
28 59 58 0
68 -46 56 0
68 -47 69 0
-53 1 -51 0
20 -57 42 0
-46 -22 -59 0
-17 -26 27 0
55 -41 -28 0
25 -54 -18 0
4 6 12 0
40 12 -67 0
13 11 -28 0
-40 28 36 0
66 3 -33 0
-8 13 24 0
-10 26 -50 0
-55 -59 50 0
26 41 -27 0
65 -12 -45 0
32 55 18 0
56 39 -40 0
-45 9 32 0
-13 -26 53 0
2 -58 -17 0
38 3 17 0
50 58 -21 0
-48 21 70 0
55 -64 65 0
9 8 68 0
45 -53 -49 0
-2 -45 -37 0
-29 51 -36 0
-20 30 49 0
70 54 -48 0
63 -10 -57 0
-3 6 11 0
-62 -61 43 0
-49 -65 -28 0
25 30 -28 0
-14 45 -2 0
25 -22 -2 0
-3 7 -62 0
69 52 -10 0
-27 32 7 0
-55 -36 63 0
17 -24 -23 0
-61 68 55 0
-50 44 59 0
-30 45 15 0
38 56 24 0
69 -67 26 0
-24 62 60 0
-15 61 5 0
-53 -2 14 0
-36 -61 -4 0
16 -12 -23 0
-5 -67 -60 0
53 38 17 0
-43 51 -5 0
14 -37 52 0
51 39 47 0
-47 -38 48 0
49 37 -45 0
19 -54 29 0
-50 36 -29 0
-26 -54 50 0
-50 -18 36 0
